H3 C2 N1                                
   1.00000000000000     
    30.0000000000000000    0.0000000000000000    0.0000000000000000
     0.0000000000000000   30.0000000000000000    0.0000000000000000
     0.0000000000000000    0.0000000000000000   30.0000000000000000
   H    C    N 
     3     2     1
Direct
  0.4929198313861453  0.4621353799134414  0.5271463166454771
  0.4720881144316746  0.4784670717631007  0.4737177719922957
  0.4641114918329222  0.5139922409968539  0.5209186429582958
  0.4872311207896124  0.4905961963430936  0.5047895988804859
  0.5628317006531198  0.5290541848309451  0.4874863202055520
  0.5282526137205563  0.5120147181801566  0.4953915553526820
 
             NaN             NaN             NaN
             NaN             NaN             NaN
             NaN             NaN             NaN
             NaN             NaN             NaN
             NaN             NaN             NaN
             NaN             NaN             NaN
