H3 C2 N1                                
   1.00000000000000     
    30.0000000000000000    0.0000000000000000    0.0000000000000000
     0.0000000000000000   30.0000000000000000    0.0000000000000000
     0.0000000000000000    0.0000000000000000   30.0000000000000000
   H    C    N 
     3     2     1
Direct
  0.4859533947751046  0.4627845371928070  0.5236505831796108
  0.4669956105737197  0.4889055651547956  0.4730544720089329
  0.4689082967982887  0.5202152970762498  0.5240064812713194
  0.4856767204151056  0.4940707496959522  0.5043243247858360
  0.5676610543551830  0.5169068616076170  0.4869592679410999
  0.5302767262252529  0.5072119906494581  0.4947483904539238
 
             NaN             NaN             NaN
             NaN             NaN             NaN
             NaN             NaN             NaN
             NaN             NaN             NaN
             NaN             NaN             NaN
             NaN             NaN             NaN
