H3 C2 N1                                
   1.00000000000000     
    30.0000000000000000    0.0000000000000000    0.0000000000000000
     0.0000000000000000   30.0000000000000000    0.0000000000000000
     0.0000000000000000    0.0000000000000000   30.0000000000000000
   H    C    N 
     3     2     1
Direct
  0.4731405901290961  0.4653638654103872  0.5057427174282094
  0.4759327985831639  0.5103498920592390  0.4643076050264867
  0.4759263726101691  0.5225892840567558  0.5227868799079687
  0.4858157327662815  0.4981774313810736  0.4969675926879236
  0.5391784774047901  0.4885989198453038  0.4897765816090718
  0.5480534677597561  0.5135164108071226  0.5192518621066443
 
             NaN             NaN             NaN
             NaN             NaN             NaN
             NaN             NaN             NaN
             NaN             NaN             NaN
             NaN             NaN             NaN
             NaN             NaN             NaN
