H3 C2 N1                                
   1.00000000000000     
    30.0000000000000000    0.0000000000000000    0.0000000000000000
     0.0000000000000000   30.0000000000000000    0.0000000000000000
     0.0000000000000000    0.0000000000000000   30.0000000000000000
   H    C    N 
     3     2     1
Direct
  0.4728706714974565  0.4653394334100082  0.5057216969840190
  0.4755407206331239  0.5101869567225480  0.4641956999421857
  0.4761686578198445  0.5225497855855997  0.5226541708534256
  0.4857761886715277  0.4980369730171592  0.4967720311154413
  0.5389072894359610  0.4889806969699844  0.4900220960179830
  0.5487287941823867  0.5135762907419663  0.5194147442763611
 
             NaN             NaN             NaN
             NaN             NaN             NaN
             NaN             NaN             NaN
             NaN             NaN             NaN
             NaN             NaN             NaN
             NaN             NaN             NaN
