H3 C2 N1                                
   1.00000000000000     
    30.0000000000000000    0.0000000000000000    0.0000000000000000
     0.0000000000000000   30.0000000000000000    0.0000000000000000
     0.0000000000000000    0.0000000000000000   30.0000000000000000
   H    C    N 
     3     2     1
Direct
  0.4715734934179650  0.4664477246160646  0.5082039914877438
  0.4651452454474589  0.5174920076478209  0.4780456608282138
  0.4804989532327449  0.5186339787977036  0.5356640911698907
  0.4845020001998017  0.5004815440066592  0.5040915828097043
  0.5681688333575547  0.4978875375158926  0.4820107883671729
  0.5301211247296079  0.4990732375745997  0.4919824658686736
 
             NaN             NaN             NaN
             NaN             NaN             NaN
             NaN             NaN             NaN
             NaN             NaN             NaN
             NaN             NaN             NaN
             NaN             NaN             NaN
