H3 C2 N1                                
   1.00000000000000     
    30.0000000000000000    0.0000000000000000    0.0000000000000000
     0.0000000000000000   30.0000000000000000    0.0000000000000000
     0.0000000000000000    0.0000000000000000   30.0000000000000000
   H    C    N 
     3     2     1
Direct
  0.4730423984374921  0.4645102108072203  0.5038616444837218
  0.4640967677120343  0.5189306049397391  0.4811696363625230
  0.4800829250230337  0.5127029291017891  0.5382681584618809
  0.4845898719856304  0.4993035312594543  0.5043864620629472
  0.5680591051958713  0.5031871346591461  0.4808298697158030
  0.5301389217892456  0.5013844778714429  0.4914841837879885
 
             NaN             NaN             NaN
             NaN             NaN             NaN
             NaN             NaN             NaN
             NaN             NaN             NaN
             NaN             NaN             NaN
             NaN             NaN             NaN
