H12 C6 N2 O2                            
   1.00000000000000     
    30.0000000000000000    0.0000000000000000    0.0000000000000000
     0.0000000000000000   30.0000000000000000    0.0000000000000000
     0.0000000000000000    0.0000000000000000   30.0000000000000000
   H    C    N    O 
    12     6     2     2
Direct
  0.3803472409329339  0.5484762324563666  0.5008225694033900
  0.3884724674587605  0.4989994012346129  0.4682172085463806
  0.3760264795203639  0.4949232272655756  0.5260482784682442
  0.4510473935737298  0.4559110720615888  0.4837649100701379
  0.5115194451144582  0.4725352079143246  0.5541511406055513
  0.5527176173714533  0.4084243278047309  0.5160454431803967
  0.5161044602291172  0.4133937716393881  0.4702796850895598
  0.4944218046234302  0.3972576716638575  0.5235798454732428
  0.5151030953944613  0.5522758995962854  0.5080072293815843
  0.6106286289999371  0.5533045715611505  0.4800845548429536
  0.5721486717103326  0.5754769964537718  0.4406574046720390
  0.5775023444875442  0.6011291746255594  0.4941365802600740
  0.3940739513096637  0.5146495777503879  0.5008905784921964
  0.4429450526293243  0.5163047052932485  0.5135043206399152
  0.5116507807300135  0.4675546945411057  0.5176199803129916
  0.5189438569154632  0.4184887719972141  0.5065385625844353
  0.5513399973148412  0.4953574559865570  0.4990241971728715
  0.5778241152820062  0.5691008619879071  0.4764247388130975
  0.4673478117445601  0.4801915653160957  0.5008940548683330
  0.5440772414488177  0.5396490885025091  0.4946563978214468
  0.4592767907488937  0.5480103910560747  0.5346403989400356
  0.5871186478947322  0.4768456419260008  0.4899577924545530
 
             NaN             NaN             NaN
             NaN             NaN             NaN
             NaN             NaN             NaN
             NaN             NaN             NaN
             NaN             NaN             NaN
             NaN             NaN             NaN
             NaN             NaN             NaN
             NaN             NaN             NaN
             NaN             NaN             NaN
             NaN             NaN             NaN
             NaN             NaN             NaN
             NaN             NaN             NaN
             NaN             NaN             NaN
             NaN             NaN             NaN
             NaN             NaN             NaN
             NaN             NaN             NaN
             NaN             NaN             NaN
             NaN             NaN             NaN
             NaN             NaN             NaN
             NaN             NaN             NaN
             NaN             NaN             NaN
             NaN             NaN             NaN
