H12 C6 N2 O2                            
   1.00000000000000     
    30.0000000000000000    0.0000000000000000    0.0000000000000000
     0.0000000000000000   30.0000000000000000    0.0000000000000000
     0.0000000000000000    0.0000000000000000   30.0000000000000000
   H    C    N    O 
    12     6     2     2
Direct
  0.3800529609336142  0.5491637860405267  0.5050894704171982
  0.3851527838024136  0.5010870264219188  0.4698891126964936
  0.3801638844410608  0.4948093012340529  0.5285521112117672
  0.4504297257028100  0.4558989286433642  0.4856138811181727
  0.5074920938846748  0.4711509772689755  0.5556326842173089
  0.5547875598119800  0.4114016065875969  0.5135474880637829
  0.5145785404361172  0.4143113708777798  0.4705718172327451
  0.4979224466106177  0.3956959037949738  0.5243906595168117
  0.5161712304785159  0.5524843863618831  0.5111260011577905
  0.6100229487389102  0.5512393045534320  0.4744750150238010
  0.5660787231737825  0.5685649493943307  0.4387002133518727
  0.5779760568047708  0.6008956377774681  0.4866982573262141
  0.3944774828209322  0.5158281707832671  0.5020939460000934
  0.4441227495759057  0.5186067453700665  0.5102002308331747
  0.5108370887658162  0.4676343757203791  0.5190610487267712
  0.5196749944890063  0.4190525790452074  0.5066135105122382
  0.5518341900405040  0.4951209606445855  0.5031447791666153
  0.5768249087665511  0.5666548850896097  0.4737954595575959
  0.4679596412981138  0.4814932533100772  0.4992703402564553
  0.5457758525598526  0.5395128369865289  0.4990042649228629
  0.4609774634673512  0.5520619175394762  0.5280797550060590
  0.5871936314393192  0.4755940232322616  0.4944733514198454
 
             NaN             NaN             NaN
             NaN             NaN             NaN
             NaN             NaN             NaN
             NaN             NaN             NaN
             NaN             NaN             NaN
             NaN             NaN             NaN
             NaN             NaN             NaN
             NaN             NaN             NaN
             NaN             NaN             NaN
             NaN             NaN             NaN
             NaN             NaN             NaN
             NaN             NaN             NaN
             NaN             NaN             NaN
             NaN             NaN             NaN
             NaN             NaN             NaN
             NaN             NaN             NaN
             NaN             NaN             NaN
             NaN             NaN             NaN
             NaN             NaN             NaN
             NaN             NaN             NaN
             NaN             NaN             NaN
             NaN             NaN             NaN
