H3 C2 N1                                
   1.00000000000000     
    30.0000000000000000    0.0000000000000000    0.0000000000000000
     0.0000000000000000   30.0000000000000000    0.0000000000000000
     0.0000000000000000    0.0000000000000000   30.0000000000000000
   H    C    N 
     3     2     1
Direct
  0.4862992283075857  0.4611458215346281  0.5259219382215282
  0.4585532231868468  0.5044576267483850  0.4957002241631545
  0.4947294753397291  0.5182082125475551  0.5410649795313650
  0.4895334661198893  0.4952663335899404  0.5129729034810588
  0.5565530524347972  0.4995743185415513  0.4583165678807838
  0.5260394359708590  0.4977438949394029  0.4831288419461005
 
             NaN             NaN             NaN
             NaN             NaN             NaN
             NaN             NaN             NaN
             NaN             NaN             NaN
             NaN             NaN             NaN
             NaN             NaN             NaN
