H3 C2 N1                                
   1.00000000000000     
    30.0000000000000000    0.0000000000000000    0.0000000000000000
     0.0000000000000000   30.0000000000000000    0.0000000000000000
     0.0000000000000000    0.0000000000000000   30.0000000000000000
   H    C    N 
     3     2     1
Direct
  0.4861123617416558  0.4627882563461863  0.5270047356617833
  0.4583232977223468  0.5039964190374659  0.4940326637814419
  0.4934732094858121  0.5206859903876132  0.5392354089558348
  0.4891065797326027  0.4962174872761834  0.5123183528347883
  0.5570383213372562  0.4986486400807708  0.4587010544928542
  0.5261281241318901  0.4976648717139704  0.4830133082031233
 
             NaN             NaN             NaN
             NaN             NaN             NaN
             NaN             NaN             NaN
             NaN             NaN             NaN
             NaN             NaN             NaN
             NaN             NaN             NaN
