H12 C6 N2 O2                            
   1.00000000000000     
    30.0000000000000000    0.0000000000000000    0.0000000000000000
     0.0000000000000000   30.0000000000000000    0.0000000000000000
     0.0000000000000000    0.0000000000000000   30.0000000000000000
   H    C    N    O 
    12     6     2     2
Direct
  0.3731656835963494  0.5333808629932926  0.5007661429563688
  0.3801258841351094  0.4774876106031736  0.4818167707432369
  0.3815665788804313  0.4891432286949267  0.5399758864541054
  0.4483880409282570  0.4495765133176394  0.5287334668093023
  0.5218676932874180  0.4445164849242275  0.5427683616706476
  0.5551704766825599  0.4216621504983618  0.4712123059517900
  0.5130441544889486  0.4510599336522890  0.4408921774614457
  0.4984261520584157  0.4041068906801396  0.4744645974726372
  0.5107221861005309  0.5502338469934052  0.4942535463376027
  0.5982214636841061  0.5761493454694009  0.5298396582096306
  0.6027032309562496  0.5647181067809369  0.4719861277987609
  0.5647786221496206  0.6067891692773475  0.4909400972020897
  0.3908209944366264  0.5020347526288176  0.5069268043158968
  0.4406130307264750  0.5102294816733514  0.5025502504817216
  0.5141939333803618  0.4640299331290701  0.5126308065771593
  0.5204898709560289  0.4333234422675240  0.4720831839977538
  0.5520355051287841  0.4991600230819411  0.5126077706691579
  0.5791716451373737  0.5740625630181111  0.4985824717936442
  0.4665108710997997  0.4761527333799450  0.5178775665351112
  0.5432803851146581  0.5418421774709770  0.5022435494390491
  0.4547116534617531  0.5455789230898380  0.4861060574186129
  0.5899904484768704  0.4847627634446051  0.5207413258151140
 
             NaN             NaN             NaN
             NaN             NaN             NaN
             NaN             NaN             NaN
             NaN             NaN             NaN
             NaN             NaN             NaN
             NaN             NaN             NaN
             NaN             NaN             NaN
             NaN             NaN             NaN
             NaN             NaN             NaN
             NaN             NaN             NaN
             NaN             NaN             NaN
             NaN             NaN             NaN
             NaN             NaN             NaN
             NaN             NaN             NaN
             NaN             NaN             NaN
             NaN             NaN             NaN
             NaN             NaN             NaN
             NaN             NaN             NaN
             NaN             NaN             NaN
             NaN             NaN             NaN
             NaN             NaN             NaN
             NaN             NaN             NaN
