H12 C6 N2 O2                            
   1.00000000000000     
    30.0000000000000000    0.0000000000000000    0.0000000000000000
     0.0000000000000000   30.0000000000000000    0.0000000000000000
     0.0000000000000000    0.0000000000000000   30.0000000000000000
   H    C    N    O 
    12     6     2     2
Direct
  0.3739034833046287  0.5340776634540202  0.4971285342438920
  0.3813428402791651  0.4776605960667579  0.4801979243207936
  0.3769213348972991  0.4908081930491553  0.5378074452678520
  0.4485468750781332  0.4472588611461152  0.5245395616257363
  0.5219372875447766  0.4446482829155659  0.5432012938569746
  0.5559853045356817  0.4202310954514087  0.4727633237346223
  0.5141493963405500  0.4486505807288937  0.4411346944204046
  0.4992100812286269  0.4027028796614490  0.4759566651449489
  0.5106646153520250  0.5513392977292049  0.4976086061340450
  0.5992209444575761  0.5770497742397295  0.5280643037012640
  0.6022225976432160  0.5662389965367063  0.4698842934732066
  0.5638560953170374  0.6069135300270628  0.4901940533475011
  0.3901912971592872  0.5025563372133063  0.5057183735030577
  0.4403332912842015  0.5111695221223733  0.5067989310425274
  0.5143291637775914  0.4637202157333647  0.5127817063288066
  0.5212461696686310  0.4319278349364186  0.4730267990910483
  0.5523028964673478  0.4989032410869939  0.5114687819504182
  0.5791939853280573  0.5744608576272724  0.4973649114791472
  0.4662209940004199  0.4752635002209071  0.5168114921271896
  0.5436251435919457  0.5418092614522957  0.5018520322810567
  0.4543814773255161  0.5491997712600846  0.4979785297105023
  0.5902133214624249  0.4834106759049846  0.5177168933938811
 
             NaN             NaN             NaN
             NaN             NaN             NaN
             NaN             NaN             NaN
             NaN             NaN             NaN
             NaN             NaN             NaN
             NaN             NaN             NaN
             NaN             NaN             NaN
             NaN             NaN             NaN
             NaN             NaN             NaN
             NaN             NaN             NaN
             NaN             NaN             NaN
             NaN             NaN             NaN
             NaN             NaN             NaN
             NaN             NaN             NaN
             NaN             NaN             NaN
             NaN             NaN             NaN
             NaN             NaN             NaN
             NaN             NaN             NaN
             NaN             NaN             NaN
             NaN             NaN             NaN
             NaN             NaN             NaN
             NaN             NaN             NaN
