H3 C2 N1                                
   1.00000000000000     
    30.0000000000000000    0.0000000000000000    0.0000000000000000
     0.0000000000000000   30.0000000000000000    0.0000000000000000
     0.0000000000000000    0.0000000000000000   30.0000000000000000
   H    C    N 
     3     2     1
Direct
  0.4747097845490115  0.4611691598183905  0.4967421324056337
  0.4651379142749517  0.5163650322909804  0.4739261343798817
  0.4779002384510719  0.5093411281085064  0.5317816700036464
  0.4840106495009344  0.4964390655202263  0.4979784472454521
  0.5316514315107326  0.5027770801584881  0.4934263039822244
  0.5666000393665004  0.5139274821971243  0.5061452740208424
 
             NaN             NaN             NaN
             NaN             NaN             NaN
             NaN             NaN             NaN
             NaN             NaN             NaN
             NaN             NaN             NaN
             NaN             NaN             NaN
