H3 C2 N1                                
   1.00000000000000     
    30.0000000000000000    0.0000000000000000    0.0000000000000000
     0.0000000000000000   30.0000000000000000    0.0000000000000000
     0.0000000000000000    0.0000000000000000   30.0000000000000000
   H    C    N 
     3     2     1
Direct
  0.4745501005404216  0.4612280406713174  0.4970701816289350
  0.4652354332470476  0.5165609450522947  0.4741000243610484
  0.4787561665888271  0.5095673052760279  0.5317837091467936
  0.4840802483775500  0.4963970484897077  0.4979101637279434
  0.5317362021058665  0.5021383063900435  0.4922623407262528
  0.5656519052809516  0.5141273088865864  0.5068735412612752
 
             NaN             NaN             NaN
             NaN             NaN             NaN
             NaN             NaN             NaN
             NaN             NaN             NaN
             NaN             NaN             NaN
             NaN             NaN             NaN
