H3 C2 N1
1.0
30.000000 0.000000 0.000000
0.000000 30.000000 0.000000
0.000000 0.000000 30.000000
H C N
3 2 1
direct
0.471043 0.465470 0.509272 H
0.471043 0.509350 0.465392 H
0.471043 0.525410 0.525332 H
0.483713 0.500080 0.499992 C
0.532133 0.499920 0.500002 C
0.571023 0.499770 0.500012 N
