H3 C2 N1                                
   1.00000000000000     
    30.0000000000000000    0.0000000000000000    0.0000000000000000
     0.0000000000000000   30.0000000000000000    0.0000000000000000
     0.0000000000000000    0.0000000000000000   30.0000000000000000
   H    C    N 
     3     2     1
Direct
  0.4774732489829371  0.4620273310936338  0.4986519753744052
  0.4677399478134736  0.5178839112788551  0.4756297377279050
  0.4808335131624389  0.5104654473365154  0.5334279228462954
  0.4858025221105551  0.4972709313184780  0.4993038547766345
  0.5360873737402404  0.4982530594342363  0.4803040582053821
  0.5520734518435558  0.5141182676319963  0.5126824131070525
 
             NaN             NaN             NaN
             NaN             NaN             NaN
             NaN             NaN             NaN
             NaN             NaN             NaN
             NaN             NaN             NaN
             NaN             NaN             NaN
