H3 C2 N1                                
   1.00000000000000     
    30.0000000000000000    0.0000000000000000    0.0000000000000000
     0.0000000000000000   30.0000000000000000    0.0000000000000000
     0.0000000000000000    0.0000000000000000   30.0000000000000000
   H    C    N 
     3     2     1
Direct
  0.4777155874851254  0.4622749599189729  0.4989596506620995
  0.4682838756162734  0.5180719571897752  0.4757821749902941
  0.4804933881282326  0.5107204781129903  0.5338090250839541
  0.4860298782309555  0.4975380331641188  0.4998060396585940
  0.5370821106955558  0.4975198211058117  0.4790578510626414
  0.5504052178198686  0.5138936984349080  0.5125852201850420
 
             NaN             NaN             NaN
             NaN             NaN             NaN
             NaN             NaN             NaN
             NaN             NaN             NaN
             NaN             NaN             NaN
             NaN             NaN             NaN
