H3 C2 N1                                
   1.00000000000000     
    30.0000000000000000    0.0000000000000000    0.0000000000000000
     0.0000000000000000   30.0000000000000000    0.0000000000000000
     0.0000000000000000    0.0000000000000000   30.0000000000000000
   H    C    N 
     3     2     1
Direct
  0.4744171089588474  0.4681687250681448  0.5079777118563834
  0.4776017752031496  0.5117963558401670  0.4675897367462767
  0.4680808966181613  0.5254243171105168  0.5253590336097143
  0.4847066327627303  0.5028624080579943  0.5023894644355301
  0.5605991295375713  0.4856470736766997  0.4873896144190769
  0.5326504470650427  0.5046887071235289  0.5081280202954351
 
             NaN             NaN             NaN
             NaN             NaN             NaN
             NaN             NaN             NaN
             NaN             NaN             NaN
             NaN             NaN             NaN
             NaN             NaN             NaN
