H3 C2 N1                                
   1.00000000000000     
    30.0000000000000000    0.0000000000000000    0.0000000000000000
     0.0000000000000000   30.0000000000000000    0.0000000000000000
     0.0000000000000000    0.0000000000000000   30.0000000000000000
   H    C    N 
     3     2     1
Direct
  0.4740312334685073  0.4681084118838709  0.5078590464690453
  0.4771500819658692  0.5115394392215944  0.4674079606470643
  0.4679561991092390  0.5253211220034495  0.5251079515288488
  0.4846204801740700  0.5027309247165378  0.5021905576558389
  0.5615887526927222  0.4864000222133327  0.4882446349150005
  0.5324891095565926  0.5047010759736015  0.5080226962219647
 
             NaN             NaN             NaN
             NaN             NaN             NaN
             NaN             NaN             NaN
             NaN             NaN             NaN
             NaN             NaN             NaN
             NaN             NaN             NaN
