H3 C2 N1                                
   1.00000000000000     
    30.0000000000000000    0.0000000000000000    0.0000000000000000
     0.0000000000000000   30.0000000000000000    0.0000000000000000
     0.0000000000000000    0.0000000000000000   30.0000000000000000
   H    C    N 
     3     2     1
Direct
  0.4626383253174876  0.4756218241337531  0.5036757375726686
  0.4765182109305834  0.5221624941115349  0.4690632916329786
  0.4789692269347269  0.5273656309962499  0.5284366222457161
  0.4846621753585910  0.5046972672813748  0.5002238793830986
  0.5674401273457993  0.4793829808459402  0.4990137556694209
  0.5297933221699154  0.4908110712697115  0.4995802010616401
 
             NaN             NaN             NaN
             NaN             NaN             NaN
             NaN             NaN             NaN
             NaN             NaN             NaN
             NaN             NaN             NaN
             NaN             NaN             NaN
