H3 C2 N1                                
   1.00000000000000     
    30.0000000000000000    0.0000000000000000    0.0000000000000000
     0.0000000000000000   30.0000000000000000    0.0000000000000000
     0.0000000000000000    0.0000000000000000   30.0000000000000000
   H    C    N 
     3     2     1
Direct
  0.4632492835171398  0.4762897841072998  0.5087437807448989
  0.4740169526998618  0.5206948434196019  0.4702658191434851
  0.4818395906598291  0.5293528000418054  0.5288319764045830
  0.4847824250527515  0.5050427206592233  0.5015758029904758
  0.5665634433525950  0.4780348499354892  0.4932023263317190
  0.5295659747573047  0.4906198388106299  0.4973749305761760
 
             NaN             NaN             NaN
             NaN             NaN             NaN
             NaN             NaN             NaN
             NaN             NaN             NaN
             NaN             NaN             NaN
             NaN             NaN             NaN
