H12 C6 N2 O2                            
   1.00000000000000     
    30.0000000000000000    0.0000000000000000    0.0000000000000000
     0.0000000000000000   30.0000000000000000    0.0000000000000000
     0.0000000000000000    0.0000000000000000   30.0000000000000000
   H    C    N    O 
    12     6     2     2
Direct
  0.3781602272352397  0.5326652954219641  0.4931777939340660
  0.3804792517394902  0.4863498844048467  0.4561840943615997
  0.3827141553521456  0.4771705097566242  0.5147680547149550
  0.4492982462066861  0.4396751274248199  0.5020910316068692
  0.5213393752659291  0.4257264332305682  0.4991575171423693
  0.5708661061480685  0.4654226432247512  0.4446923733825339
  0.5270743317658715  0.5039125656283059  0.4330040936875348
  0.5205144787304886  0.4462335516940523  0.4196764439436679
  0.5142949774115601  0.5445624430634650  0.5080018778618756
  0.5693908032666392  0.5429511705355859  0.5898268303677926
  0.6000322403933677  0.5613402870476030  0.5426448006232641
  0.5513084562057015  0.5912999457343320  0.5596318293509445
  0.3931737517967988  0.4997961613103043  0.4878816879492109
  0.4434276088233110  0.5049754595205002  0.4854004776670322
  0.5157842120064990  0.4609269924131076  0.4907699119295794
  0.5344822101613288  0.4698227359212626  0.4439972693485560
  0.5438448601332281  0.4859610487446360  0.5261584075679028
  0.5661860467568208  0.5580392663174146  0.5566015162575180
  0.4671579595541407  0.4671875537299098  0.4937255843083311
  0.5381578390593257  0.5306067760731912  0.5283175171053249
  0.4611374432063741  0.5413009463623852  0.4760430625265734
  0.5715044255783374  0.4651498550062691  0.5487435026545936
 
             NaN             NaN             NaN
             NaN             NaN             NaN
             NaN             NaN             NaN
             NaN             NaN             NaN
             NaN             NaN             NaN
             NaN             NaN             NaN
             NaN             NaN             NaN
             NaN             NaN             NaN
             NaN             NaN             NaN
             NaN             NaN             NaN
             NaN             NaN             NaN
             NaN             NaN             NaN
             NaN             NaN             NaN
             NaN             NaN             NaN
             NaN             NaN             NaN
             NaN             NaN             NaN
             NaN             NaN             NaN
             NaN             NaN             NaN
             NaN             NaN             NaN
             NaN             NaN             NaN
             NaN             NaN             NaN
             NaN             NaN             NaN
