H12 C6 N2 O2                            
   1.00000000000000     
    30.0000000000000000    0.0000000000000000    0.0000000000000000
     0.0000000000000000   30.0000000000000000    0.0000000000000000
     0.0000000000000000    0.0000000000000000   30.0000000000000000
   H    C    N    O 
    12     6     2     2
Direct
  0.3780747984563911  0.5324055322459792  0.4936579478429614
  0.3800904275013027  0.4853882328297253  0.4575454028542177
  0.3828839224683587  0.4774557601237293  0.5162204535460680
  0.4483923884215888  0.4387723634161588  0.4965931782077740
  0.5214055486201414  0.4264731357490703  0.5000539429292132
  0.5725662626124974  0.4672608219196689  0.4472349174905574
  0.5280658839513969  0.5037499807528525  0.4325552864222558
  0.5247605930150119  0.4457040744627530  0.4198179666589625
  0.5129413886634309  0.5459968404308044  0.5069493115639073
  0.5700398934242675  0.5405273087779279  0.5884945176185139
  0.5997453456467542  0.5573929807432769  0.5405576485116866
  0.5544421478425630  0.5916994494399286  0.5603181902056064
  0.3929235243510369  0.4995952555357563  0.4887915454808573
  0.4428572228828749  0.5050597093517077  0.4855684243618590
  0.5155446802369624  0.4613379690065206  0.4905559880193470
  0.5361434814538074  0.4701985195659612  0.4445926130033702
  0.5414681753762759  0.4871731265264163  0.5266832481522743
  0.5662440589681053  0.5572089992715851  0.5560136289910672
  0.4666131274406484  0.4669264418425943  0.4916439205088265
  0.5353640059218867  0.5317028971833434  0.5288110468689494
  0.4605185868482903  0.5417938487055699  0.4778130120201303
  0.5692383321510081  0.4672686264382238  0.5500391990040524
 
             NaN             NaN             NaN
             NaN             NaN             NaN
             NaN             NaN             NaN
             NaN             NaN             NaN
             NaN             NaN             NaN
             NaN             NaN             NaN
             NaN             NaN             NaN
             NaN             NaN             NaN
             NaN             NaN             NaN
             NaN             NaN             NaN
             NaN             NaN             NaN
             NaN             NaN             NaN
             NaN             NaN             NaN
             NaN             NaN             NaN
             NaN             NaN             NaN
             NaN             NaN             NaN
             NaN             NaN             NaN
             NaN             NaN             NaN
             NaN             NaN             NaN
             NaN             NaN             NaN
             NaN             NaN             NaN
             NaN             NaN             NaN
