H3 C2 N1                                
   1.00000000000000     
    30.0000000000000000    0.0000000000000000    0.0000000000000000
     0.0000000000000000   30.0000000000000000    0.0000000000000000
     0.0000000000000000    0.0000000000000000   30.0000000000000000
   H    C    N 
     3     2     1
Direct
  0.4760510486199675  0.4655648640035815  0.5074398063106151
  0.4756483747393602  0.5111757016279737  0.4668814457952028
  0.4755979189746671  0.5225831621939095  0.5256553601920035
  0.4866507636746533  0.4994906839584075  0.4995585238622050
  0.5433701607082925  0.4871767547550141  0.4852311539840209
  0.5427041915724515  0.5139976402904131  0.5152137065932465
 
             NaN             NaN             NaN
             NaN             NaN             NaN
             NaN             NaN             NaN
             NaN             NaN             NaN
             NaN             NaN             NaN
             NaN             NaN             NaN
