H3 C2 N1                                
   1.00000000000000     
    30.0000000000000000    0.0000000000000000    0.0000000000000000
     0.0000000000000000   30.0000000000000000    0.0000000000000000
     0.0000000000000000    0.0000000000000000   30.0000000000000000
   H    C    N 
     3     2     1
Direct
  0.4760050745113620  0.4655681251218464  0.5073059379384850
  0.4757591719155137  0.5112500225790882  0.4668270431354909
  0.4755330587067786  0.5225507782518800  0.5256234488132566
  0.4866522582326809  0.4995009084964471  0.4995172860796656
  0.5434065581260050  0.4871438638964316  0.4853672605069831
  0.5426663388374312  0.5139751047783938  0.5153390227965695
 
             NaN             NaN             NaN
             NaN             NaN             NaN
             NaN             NaN             NaN
             NaN             NaN             NaN
             NaN             NaN             NaN
             NaN             NaN             NaN
