H3 C2 N1                                
   1.00000000000000     
    30.0000000000000000    0.0000000000000000    0.0000000000000000
     0.0000000000000000   30.0000000000000000    0.0000000000000000
     0.0000000000000000    0.0000000000000000   30.0000000000000000
   H    C    N 
     3     2     1
Direct
  0.4752225538859143  0.4677158619060067  0.5075815565403956
  0.4783794074775420  0.5114637280495617  0.4671254124582667
  0.4688130469568778  0.5249832686125112  0.5248782949911490
  0.4853159502755280  0.5025037583459966  0.5020010316142126
  0.5561514503972869  0.4848568910385771  0.4862237182183390
  0.5341649369403136  0.5070726053872807  0.5110227301625913
 
             NaN             NaN             NaN
             NaN             NaN             NaN
             NaN             NaN             NaN
             NaN             NaN             NaN
             NaN             NaN             NaN
             NaN             NaN             NaN
