H3 C2 N1                                
   1.00000000000000     
    30.0000000000000000    0.0000000000000000    0.0000000000000000
     0.0000000000000000   30.0000000000000000    0.0000000000000000
     0.0000000000000000    0.0000000000000000   30.0000000000000000
   H    C    N 
     3     2     1
Direct
  0.4749101392788611  0.4676645342873408  0.5074638763433297
  0.4780757667052553  0.5112806556237069  0.4670009126488651
  0.4688079894875692  0.5249429169212732  0.5247528611371173
  0.4852159311949949  0.5023998979645642  0.5018824156006535
  0.5570204094483182  0.4854050516720181  0.4867296271436268
  0.5339212709214171  0.5069964244384599  0.5110009969360318
 
             NaN             NaN             NaN
             NaN             NaN             NaN
             NaN             NaN             NaN
             NaN             NaN             NaN
             NaN             NaN             NaN
             NaN             NaN             NaN
