H3 C2 N1                                
   1.00000000000000     
    30.0000000000000000    0.0000000000000000    0.0000000000000000
     0.0000000000000000   30.0000000000000000    0.0000000000000000
     0.0000000000000000    0.0000000000000000   30.0000000000000000
   H    C    N 
     3     2     1
Direct
  0.4690841156462522  0.4684458474762155  0.5089754038690788
  0.4714509966292357  0.5107583299245075  0.4669832677808951
  0.4724829449078238  0.5258861767471084  0.5246730879028892
  0.4834849658145985  0.5009639281261242  0.5001728142336650
  0.5698417450616998  0.4950410866693801  0.4991899991581978
  0.5306152994494246  0.4980729011800217  0.4999263880923330
 
             NaN             NaN             NaN
             NaN             NaN             NaN
             NaN             NaN             NaN
             NaN             NaN             NaN
             NaN             NaN             NaN
             NaN             NaN             NaN
