H3 C2 N1                                
   1.00000000000000     
    30.0000000000000000    0.0000000000000000    0.0000000000000000
     0.0000000000000000   30.0000000000000000    0.0000000000000000
     0.0000000000000000    0.0000000000000000   30.0000000000000000
   H    C    N 
     3     2     1
Direct
  0.4692018092138295  0.4684137473830892  0.5090163483353876
  0.4715600590716680  0.5106309881860708  0.4668876885320969
  0.4722272695830098  0.5258667048081835  0.5245653966112837
  0.4834744218856379  0.5009698477778416  0.5001614204411364
  0.5698235144891213  0.4950465430479751  0.4992394523129219
  0.5306005466466742  0.4982741338341626  0.5001266763627408
 
             NaN             NaN             NaN
             NaN             NaN             NaN
             NaN             NaN             NaN
             NaN             NaN             NaN
             NaN             NaN             NaN
             NaN             NaN             NaN
