H12 C6 N2 O2                            
   1.00000000000000     
    30.0000000000000000    0.0000000000000000    0.0000000000000000
     0.0000000000000000   30.0000000000000000    0.0000000000000000
     0.0000000000000000    0.0000000000000000   30.0000000000000000
   H    C    N    O 
    12     6     2     2
Direct
  0.3727494838228525  0.5372804511276351  0.4955779876145057
  0.3830990243877819  0.4885297352367441  0.4630345529950149
  0.3756055017635626  0.4837755076038150  0.5217173889983536
  0.4449737694101893  0.4464631406592503  0.4990533802426620
  0.5119983910621395  0.4403129845301763  0.5399610783340089
  0.5618497301155384  0.4258118498454064  0.4745968369070381
  0.5242068484277909  0.4559322597235466  0.4394380295085609
  0.5068779908333828  0.4051387453014083  0.4652956345821391
  0.5106489416187556  0.5506534679967068  0.5047732107701857
  0.6100728671876646  0.5530104895150409  0.5211216777423350
  0.5850335440063333  0.5854142444641676  0.4776372519063899
  0.5737389480543842  0.5984200049639183  0.5346486981645041
  0.3895984488693808  0.5049113485830483  0.4952125811319900
  0.4392480009124471  0.5126283255513278  0.5020345203197588
  0.5112348521510625  0.4624119855290063  0.5106136538675848
  0.5269242290592926  0.4355397507019520  0.4697838691595744
  0.5487392385969917  0.4965222865249606  0.5204570147685808
  0.5798919311833025  0.5710331625481280  0.5110393077666201
  0.4636430374611170  0.4743884949181114  0.5040900743712065
  0.5430782004669578  0.5397660066840034  0.5099989745962591
  0.4541549895479990  0.5511674166728607  0.5051605321056205
  0.5841264703258885  0.4799744136354869  0.5341474587177564
 
             NaN             NaN             NaN
             NaN             NaN             NaN
             NaN             NaN             NaN
             NaN             NaN             NaN
             NaN             NaN             NaN
             NaN             NaN             NaN
             NaN             NaN             NaN
             NaN             NaN             NaN
             NaN             NaN             NaN
             NaN             NaN             NaN
             NaN             NaN             NaN
             NaN             NaN             NaN
             NaN             NaN             NaN
             NaN             NaN             NaN
             NaN             NaN             NaN
             NaN             NaN             NaN
             NaN             NaN             NaN
             NaN             NaN             NaN
             NaN             NaN             NaN
             NaN             NaN             NaN
             NaN             NaN             NaN
             NaN             NaN             NaN
