H12 C6 N2 O2                            
   1.00000000000000     
    30.0000000000000000    0.0000000000000000    0.0000000000000000
     0.0000000000000000   30.0000000000000000    0.0000000000000000
     0.0000000000000000    0.0000000000000000   30.0000000000000000
   H    C    N    O 
    12     6     2     2
Direct
  0.3736398252390434  0.5373489196603815  0.4973860943872743
  0.3825734076955444  0.4887434660723037  0.4639706182109569
  0.3798599794371288  0.4839424548783389  0.5228889876839805
  0.4462429029536795  0.4482485728755147  0.4914353395298197
  0.5086178081854525  0.4390364034322847  0.5400079766671417
  0.5647716999458894  0.4334800847262172  0.4738993498452387
  0.5219254918406355  0.4577411944695882  0.4405338851424858
  0.5134701445583838  0.4045996506279341  0.4661435749516730
  0.5077873071803425  0.5504494650161411  0.5108975455540248
  0.6078307423724643  0.5488501819712680  0.5186579889686864
  0.5793083476962745  0.5773755394782648  0.4750247744541500
  0.5773744070552752  0.5992735440048134  0.5302182902968946
  0.3904998085956985  0.5053746093396817  0.4954194215512063
  0.4400210810382807  0.5136774758359545  0.4997986240806078
  0.5107059605288102  0.4621310380827589  0.5114118527819121
  0.5288868683089283  0.4374673021877544  0.4701311116488458
  0.5470671003965878  0.4959819118789854  0.5239530970462535
  0.5783538141596876  0.5685639366446207  0.5105130858783203
  0.4641886684125763  0.4752681951287547  0.5015513494482235
  0.5400942417791899  0.5399651333642543  0.5185478224378776
  0.4547646720229690  0.5523603382694525  0.5027581956788939
  0.5835044213977928  0.4792269215449031  0.5342514705595172
 
             NaN             NaN             NaN
             NaN             NaN             NaN
             NaN             NaN             NaN
             NaN             NaN             NaN
             NaN             NaN             NaN
             NaN             NaN             NaN
             NaN             NaN             NaN
             NaN             NaN             NaN
             NaN             NaN             NaN
             NaN             NaN             NaN
             NaN             NaN             NaN
             NaN             NaN             NaN
             NaN             NaN             NaN
             NaN             NaN             NaN
             NaN             NaN             NaN
             NaN             NaN             NaN
             NaN             NaN             NaN
             NaN             NaN             NaN
             NaN             NaN             NaN
             NaN             NaN             NaN
             NaN             NaN             NaN
             NaN             NaN             NaN
