H3 C2 N1                                
   1.00000000000000     
    30.0000000000000000    0.0000000000000000    0.0000000000000000
     0.0000000000000000   30.0000000000000000    0.0000000000000000
     0.0000000000000000    0.0000000000000000   30.0000000000000000
   H    C    N 
     3     2     1
Direct
  0.4793907727057777  0.4627263649541957  0.4993605419019467
  0.4697126342380535  0.5184373665732124  0.4763940855032503
  0.4794203087736038  0.5108502917314385  0.5349728656863723
  0.4868198493820259  0.4983052276444887  0.5014468031455380
  0.5406385685535020  0.4970742157358871  0.4754348199609812
  0.5440279240002397  0.5126254814544946  0.5123908458395886
 
             NaN             NaN             NaN
             NaN             NaN             NaN
             NaN             NaN             NaN
             NaN             NaN             NaN
             NaN             NaN             NaN
             NaN             NaN             NaN
