H3 C2 N1                                
   1.00000000000000     
    30.0000000000000000    0.0000000000000000    0.0000000000000000
     0.0000000000000000   30.0000000000000000    0.0000000000000000
     0.0000000000000000    0.0000000000000000   30.0000000000000000
   H    C    N 
     3     2     1
Direct
  0.4796903423659138  0.4630949200532020  0.4996418662381721
  0.4702697821743120  0.5185645259929412  0.4766037188509595
  0.4784162589906640  0.5110523354028917  0.5354675697865775
  0.4869287832733511  0.4987348851525173  0.5022684717164195
  0.5422585378868109  0.4964572495108263  0.4744376348798922
  0.5424463528909775  0.5121150320199660  0.5115807006505299
 
             NaN             NaN             NaN
             NaN             NaN             NaN
             NaN             NaN             NaN
             NaN             NaN             NaN
             NaN             NaN             NaN
             NaN             NaN             NaN
