H3 C2 N1                                
   1.00000000000000     
    30.0000000000000000    0.0000000000000000    0.0000000000000000
     0.0000000000000000   30.0000000000000000    0.0000000000000000
     0.0000000000000000    0.0000000000000000   30.0000000000000000
   H    C    N 
     3     2     1
Direct
  0.4643165777735463  0.4768608563299953  0.5137106486455543
  0.4706180542517527  0.5193102614783780  0.4723013429013473
  0.4850895606131801  0.5306353644568830  0.5290024323151310
  0.4850339070008484  0.5050346970490964  0.5028010746213010
  0.5658336012603036  0.4778845914606758  0.4876841921468990
  0.5291200942499340  0.4903004572142584  0.4944970316498462
 
             NaN             NaN             NaN
             NaN             NaN             NaN
             NaN             NaN             NaN
             NaN             NaN             NaN
             NaN             NaN             NaN
             NaN             NaN             NaN
