H3 C2 N1                                
   1.00000000000000     
    30.0000000000000000    0.0000000000000000    0.0000000000000000
     0.0000000000000000   30.0000000000000000    0.0000000000000000
     0.0000000000000000    0.0000000000000000   30.0000000000000000
   H    C    N 
     3     2     1
Direct
  0.4681353207229551  0.4762966471215557  0.5199187174752478
  0.4682384152935705  0.5156161615025229  0.4750042875991486
  0.4854287909530208  0.5325030390366825  0.5293842753166067
  0.4857053302536039  0.5048945249173886  0.5052869879929019
  0.5630637255100167  0.4786322757626281  0.4773351468608375
  0.5294329832809448  0.4920700074592217  0.4930694550231306
 
             NaN             NaN             NaN
             NaN             NaN             NaN
             NaN             NaN             NaN
             NaN             NaN             NaN
             NaN             NaN             NaN
             NaN             NaN             NaN
