H3 C2 N1                                
   1.00000000000000     
    30.0000000000000000    0.0000000000000000    0.0000000000000000
     0.0000000000000000   30.0000000000000000    0.0000000000000000
     0.0000000000000000    0.0000000000000000   30.0000000000000000
   H    C    N 
     3     2     1
Direct
  0.4822350342106041  0.4556283101408696  0.5125545977896223
  0.4626402137910123  0.5057099009924437  0.4867685016375208
  0.4835778091162220  0.5071217754194028  0.5426043002646038
  0.4876592512238586  0.4917417376434025  0.5096007759971171
  0.5672242018864930  0.5073712538927624  0.4792515075660822
  0.5310850879101241  0.5002387978692390  0.4930797860341246
 
             NaN             NaN             NaN
             NaN             NaN             NaN
             NaN             NaN             NaN
             NaN             NaN             NaN
             NaN             NaN             NaN
             NaN             NaN             NaN
