H3 C2 N1                                
   1.00000000000000     
    30.0000000000000000    0.0000000000000000    0.0000000000000000
     0.0000000000000000   30.0000000000000000    0.0000000000000000
     0.0000000000000000    0.0000000000000000   30.0000000000000000
   H    C    N 
     3     2     1
Direct
  0.4818400972826791  0.4560617678581107  0.5129788559747505
  0.4624411637589003  0.5061855454385247  0.4871648135658919
  0.4842562964692724  0.5077355134333256  0.5426575043845701
  0.4876489655526902  0.4920855814261820  0.5097042362489216
  0.5670042245904042  0.5065525931998990  0.4782648933368970
  0.5309156587931876  0.4999695728764608  0.4925033370165428
 
             NaN             NaN             NaN
             NaN             NaN             NaN
             NaN             NaN             NaN
             NaN             NaN             NaN
             NaN             NaN             NaN
             NaN             NaN             NaN
