H3 C2 N1                                
   1.00000000000000     
    30.0000000000000000    0.0000000000000000    0.0000000000000000
     0.0000000000000000   30.0000000000000000    0.0000000000000000
     0.0000000000000000    0.0000000000000000   30.0000000000000000
   H    C    N 
     3     2     1
Direct
  0.4754047610509418  0.4671553387663510  0.5072126665651611
  0.4785194604667731  0.5112010098200533  0.4665172575769894
  0.4703424430217691  0.5244804072158243  0.5244030957133358
  0.4858925501892913  0.5017013920485734  0.5011300456675237
  0.5516405137008130  0.4847972018062243  0.4858586866587226
  0.5362485176282678  0.5092598387539720  0.5137111583510060
 
             NaN             NaN             NaN
             NaN             NaN             NaN
             NaN             NaN             NaN
             NaN             NaN             NaN
             NaN             NaN             NaN
             NaN             NaN             NaN
