H3 C2 N1                                
   1.00000000000000     
    30.0000000000000000    0.0000000000000000    0.0000000000000000
     0.0000000000000000   30.0000000000000000    0.0000000000000000
     0.0000000000000000    0.0000000000000000   30.0000000000000000
   H    C    N 
     3     2     1
Direct
  0.4755394644167722  0.4670979883056758  0.5072254030692104
  0.4787082094981450  0.5111988459360319  0.4664701884386201
  0.4703838367366638  0.5244388370789903  0.5243281930939570
  0.4858966131263659  0.5016309658072595  0.5010678772050515
  0.5511919028262917  0.4849197493186987  0.4857903447951387
  0.5363472766705243  0.5092899166551347  0.5139529391405618
 
             NaN             NaN             NaN
             NaN             NaN             NaN
             NaN             NaN             NaN
             NaN             NaN             NaN
             NaN             NaN             NaN
             NaN             NaN             NaN
