H3 C2 N1                                
   1.00000000000000     
    30.0000000000000000    0.0000000000000000    0.0000000000000000
     0.0000000000000000   30.0000000000000000    0.0000000000000000
     0.0000000000000000    0.0000000000000000   30.0000000000000000
   H    C    N 
     3     2     1
Direct
  0.4696551374912108  0.4688540588610894  0.5087872089628984
  0.4721476140851457  0.5123764030478620  0.4679545300038671
  0.4722027383009569  0.5259076230991326  0.5260629914665962
  0.4837393122287511  0.5017547248609175  0.5010242823596255
  0.5692111957819098  0.4914935713887023  0.4947994260414338
  0.5308483020429524  0.4983875385493408  0.5002185642254178
 
             NaN             NaN             NaN
             NaN             NaN             NaN
             NaN             NaN             NaN
             NaN             NaN             NaN
             NaN             NaN             NaN
             NaN             NaN             NaN
