H3 C2 N1                                
   1.00000000000000     
    30.0000000000000000    0.0000000000000000    0.0000000000000000
     0.0000000000000000   30.0000000000000000    0.0000000000000000
     0.0000000000000000    0.0000000000000000   30.0000000000000000
   H    C    N 
     3     2     1
Direct
  0.4698303617218051  0.4688605462653612  0.5094153681155785
  0.4723060170751109  0.5113614588081467  0.4675680313551167
  0.4715006468290709  0.5263211798401528  0.5253172005535705
  0.4836126846360978  0.5017097177267126  0.5010107489765081
  0.5691018039081980  0.4920327557569393  0.4949991839063205
  0.5307367089295577  0.4988268292736133  0.5006184139751402
 
             NaN             NaN             NaN
             NaN             NaN             NaN
             NaN             NaN             NaN
             NaN             NaN             NaN
             NaN             NaN             NaN
             NaN             NaN             NaN
