H3 C2 N1                                
   1.00000000000000     
    30.0000000000000000    0.0000000000000000    0.0000000000000000
     0.0000000000000000   30.0000000000000000    0.0000000000000000
     0.0000000000000000    0.0000000000000000   30.0000000000000000
   H    C    N 
     3     2     1
Direct
  0.4715585403735308  0.4634185101910107  0.5047538039952882
  0.4712126258004956  0.5087510102774604  0.4644854252883213
  0.4753552549948613  0.5201234151912946  0.5229008717412785
  0.4842946052136016  0.4965187405302912  0.4962575114060654
  0.5325554924257442  0.4984113396793953  0.4979258588370814
  0.5650459399165809  0.5127657901691725  0.5136565260098239
 
             NaN             NaN             NaN
             NaN             NaN             NaN
             NaN             NaN             NaN
             NaN             NaN             NaN
             NaN             NaN             NaN
             NaN             NaN             NaN
