H3 C2 N1                                
   1.00000000000000     
    30.0000000000000000    0.0000000000000000    0.0000000000000000
     0.0000000000000000   30.0000000000000000    0.0000000000000000
     0.0000000000000000    0.0000000000000000   30.0000000000000000
   H    C    N 
     3     2     1
Direct
  0.4715345533419437  0.4634341172280131  0.5047031490557853
  0.4712877119770636  0.5088209756658998  0.4644604803242353
  0.4754444617303629  0.5201205039942812  0.5228876452032621
  0.4843140390333612  0.4965116201809023  0.4962174668133859
  0.5325916779505433  0.4982715884980448  0.4978467000055479
  0.5648500155133777  0.5128299989789944  0.5138645568959983
 
             NaN             NaN             NaN
             NaN             NaN             NaN
             NaN             NaN             NaN
             NaN             NaN             NaN
             NaN             NaN             NaN
             NaN             NaN             NaN
