H12 C6 N2 O2                            
   1.00000000000000     
    30.0000000000000000    0.0000000000000000    0.0000000000000000
     0.0000000000000000   30.0000000000000000    0.0000000000000000
     0.0000000000000000    0.0000000000000000   30.0000000000000000
   H    C    N    O 
    12     6     2     2
Direct
  0.3818232404777208  0.5478548441151466  0.5190529796254703
  0.3856703919902244  0.4965243004557494  0.4887718547807504
  0.3823609570604552  0.4958942403363877  0.5479471501566560
  0.4521042983128680  0.4515077224149897  0.5048858574737800
  0.5254814040250432  0.4966563864943691  0.5501209745928181
  0.5652758040342365  0.4239046473575870  0.5388187491689486
  0.5217793392139081  0.4046878199415945  0.5041913929521812
  0.5112522970813028  0.4152168913575145  0.5622634658051030
  0.5230131280072758  0.5542970853659435  0.4978426049540186
  0.5986463537933051  0.5449762946185728  0.4345975133733947
  0.5465303024920546  0.5547810940983248  0.4082431232226504
  0.5680906839623260  0.5947354885540401  0.4470172783688611
  0.3959733249995820  0.5142088346060683  0.5192028870020616
  0.4462394759919882  0.5174689491439568  0.5229917638698616
  0.5172527290992285  0.4747042193493333  0.5218130992688840
  0.5293432584660942  0.4266790937554836  0.5325230360874533
  0.5433707022753402  0.4918473517346932  0.4805531446590927
  0.5651985173720681  0.5590416773408466  0.4396176982917319
  0.4690629538912248  0.4790225869776956  0.5151005367087780
  0.5436123358404273  0.5369055370378322  0.4768011580915799
  0.4655705820328333  0.5526340807994893  0.5334585809503767
  0.5623479205823981  0.4664518689670973  0.4541828229479975
 
             NaN             NaN             NaN
             NaN             NaN             NaN
             NaN             NaN             NaN
             NaN             NaN             NaN
             NaN             NaN             NaN
             NaN             NaN             NaN
             NaN             NaN             NaN
             NaN             NaN             NaN
             NaN             NaN             NaN
             NaN             NaN             NaN
             NaN             NaN             NaN
             NaN             NaN             NaN
             NaN             NaN             NaN
             NaN             NaN             NaN
             NaN             NaN             NaN
             NaN             NaN             NaN
             NaN             NaN             NaN
             NaN             NaN             NaN
             NaN             NaN             NaN
             NaN             NaN             NaN
             NaN             NaN             NaN
             NaN             NaN             NaN
