H12 C6 N2 O2                            
   1.00000000000000     
    30.0000000000000000    0.0000000000000000    0.0000000000000000
     0.0000000000000000   30.0000000000000000    0.0000000000000000
     0.0000000000000000    0.0000000000000000   30.0000000000000000
   H    C    N    O 
    12     6     2     2
Direct
  0.3806889919729911  0.5468950112777802  0.5207729363844233
  0.3847798172332198  0.4969570464562793  0.4883506453476533
  0.3820280572503612  0.4937407533240502  0.5474669932302887
  0.4515797763182455  0.4507889060757240  0.5054094650447080
  0.5246707731878539  0.4972485821909250  0.5494057650832339
  0.5654046334053051  0.4248641847940525  0.5381913294487441
  0.5219171517248984  0.4051221270766742  0.5038630297025696
  0.5116326401702608  0.4154978368101394  0.5620266615407075
  0.5238438405584233  0.5546187888830494  0.4981446756796640
  0.6004508369805208  0.5454715618068633  0.4365026774888270
  0.5491665665854540  0.5549890661852590  0.4085363755339576
  0.5693116337439013  0.5950335663461483  0.4479740101555676
  0.3951704124175798  0.5134240501906309  0.5194066911940494
  0.4454545771191969  0.5170355998613754  0.5225754692439275
  0.5166800973137509  0.4749514644778029  0.5213130621856168
  0.5293942407857943  0.4271595743141505  0.5321688443021679
  0.5427545243388030  0.4920394245877537  0.4799966493757371
  0.5668002880868623  0.5593450094590159  0.4404552328027309
  0.4684453292220740  0.4786764932750959  0.5147366911785913
  0.5441282741759336  0.5371340694844510  0.4769621927971788
  0.4647245314094638  0.5523631181071872  0.5325761908186736
  0.5609730060862396  0.4666447666264373  0.4531623104970146
 
             NaN             NaN             NaN
             NaN             NaN             NaN
             NaN             NaN             NaN
             NaN             NaN             NaN
             NaN             NaN             NaN
             NaN             NaN             NaN
             NaN             NaN             NaN
             NaN             NaN             NaN
             NaN             NaN             NaN
             NaN             NaN             NaN
             NaN             NaN             NaN
             NaN             NaN             NaN
             NaN             NaN             NaN
             NaN             NaN             NaN
             NaN             NaN             NaN
             NaN             NaN             NaN
             NaN             NaN             NaN
             NaN             NaN             NaN
             NaN             NaN             NaN
             NaN             NaN             NaN
             NaN             NaN             NaN
             NaN             NaN             NaN
