H12 C6 N2 O2                            
   1.00000000000000     
    30.0000000000000000    0.0000000000000000    0.0000000000000000
     0.0000000000000000   30.0000000000000000    0.0000000000000000
     0.0000000000000000    0.0000000000000000   30.0000000000000000
   H    C    N    O 
    12     6     2     2
Direct
  0.3773301471384686  0.5365227670879286  0.5026083871188961
  0.3762231820980961  0.4804825518596977  0.4834683268285782
  0.3846645137083443  0.4914698472349194  0.5412010455952542
  0.4500216782629178  0.4540438826240789  0.5396033554299691
  0.5212794444919913  0.4381022245013589  0.5379999643886768
  0.5548207380215935  0.4271609404781138  0.4634164063414054
  0.5124770820423210  0.4607380166059720  0.4383725352924367
  0.4982446020870109  0.4089808243746892  0.4642213571126333
  0.5133721936849031  0.5449708806225024  0.4861984087777692
  0.5900227043471391  0.5772771244378666  0.5379917366968930
  0.6070015104248733  0.5630193896819613  0.4831657359644390
  0.5645447451048090  0.6042438969606476  0.4911703338256840
  0.3920473958055083  0.5034268217207689  0.5073557737865969
  0.4415644104173676  0.5056998910719543  0.4974007023179224
  0.5138299141871073  0.4620501851511072  0.5112998697228964
  0.5200657345760736  0.4383739387980920  0.4663440484846456
  0.5507950797606027  0.4975488025282221  0.5177146344869985
  0.5780700388919007  0.5726482260015899  0.5036422011000353
  0.4670409817552853  0.4751212753685564  0.5192754252106381
  0.5433514500497013  0.5390049370065989  0.5019384322782604
  0.4568194022613961  0.5334866366324504  0.4706536636186492
  0.5864157649889941  0.4856243384100233  0.5349506687856309
 
             NaN             NaN             NaN
             NaN             NaN             NaN
             NaN             NaN             NaN
             NaN             NaN             NaN
             NaN             NaN             NaN
             NaN             NaN             NaN
             NaN             NaN             NaN
             NaN             NaN             NaN
             NaN             NaN             NaN
             NaN             NaN             NaN
             NaN             NaN             NaN
             NaN             NaN             NaN
             NaN             NaN             NaN
             NaN             NaN             NaN
             NaN             NaN             NaN
             NaN             NaN             NaN
             NaN             NaN             NaN
             NaN             NaN             NaN
             NaN             NaN             NaN
             NaN             NaN             NaN
             NaN             NaN             NaN
             NaN             NaN             NaN
