H12 C6 N2 O2                            
   1.00000000000000     
    30.0000000000000000    0.0000000000000000    0.0000000000000000
     0.0000000000000000   30.0000000000000000    0.0000000000000000
     0.0000000000000000    0.0000000000000000   30.0000000000000000
   H    C    N    O 
    12     6     2     2
Direct
  0.3748614551817986  0.5356255715333377  0.5005113905121032
  0.3789985953401999  0.4789992811542657  0.4833711738196499
  0.3801522959312298  0.4921308952275028  0.5411070525307110
  0.4482641782107479  0.4484695205703004  0.5291968524232274
  0.5210242733020765  0.4401259518874697  0.5388896299426142
  0.5558550284884815  0.4243397947992654  0.4666217460050174
  0.5141090158871982  0.4557624181936309  0.4379055594134060
  0.4993664410083654  0.4060521347807156  0.4673895328860274
  0.5137704813257556  0.5466728239591626  0.4865473707665454
  0.5905984319652926  0.5773752865021532  0.5365840583235384
  0.6084555001928099  0.5653817560892767  0.4813451093742571
  0.5645058588815666  0.6047833292779909  0.4904243664007847
  0.3907688320486227  0.5036222177127785  0.5079259207819944
  0.4409174540317878  0.5093863700406644  0.5024222138793516
  0.5136886862885349  0.4625050140208654  0.5108437342387663
  0.5209933165768056  0.4357151509993338  0.4678004002301557
  0.5511722009468928  0.4978882238519968  0.5158279236091514
  0.5790404912138403  0.5732172726114856  0.5019574065535345
  0.4661985519837383  0.4747368605517834  0.5173054990866695
  0.5450764455537906  0.5388791122045830  0.4986321555280531
  0.4558529225532348  0.5434298178024816  0.4840177293597068
  0.5863318231783993  0.4848989712431994  0.5333668321754428
 
             NaN             NaN             NaN
             NaN             NaN             NaN
             NaN             NaN             NaN
             NaN             NaN             NaN
             NaN             NaN             NaN
             NaN             NaN             NaN
             NaN             NaN             NaN
             NaN             NaN             NaN
             NaN             NaN             NaN
             NaN             NaN             NaN
             NaN             NaN             NaN
             NaN             NaN             NaN
             NaN             NaN             NaN
             NaN             NaN             NaN
             NaN             NaN             NaN
             NaN             NaN             NaN
             NaN             NaN             NaN
             NaN             NaN             NaN
             NaN             NaN             NaN
             NaN             NaN             NaN
             NaN             NaN             NaN
             NaN             NaN             NaN
