H12 C6 N2 O2                            
   1.00000000000000     
    30.0000000000000000    0.0000000000000000    0.0000000000000000
     0.0000000000000000   30.0000000000000000    0.0000000000000000
     0.0000000000000000    0.0000000000000000   30.0000000000000000
   H    C    N    O 
    12     6     2     2
Direct
  0.3734761973886815  0.5349700511429031  0.4983798630115123
  0.3831044435063264  0.4793075858307254  0.4790028307499073
  0.3787134220077501  0.4903626927493955  0.5371692848334167
  0.4485848670258075  0.4478174814429458  0.4997873753100603
  0.5207240460863303  0.4581197083739940  0.5448037099862829
  0.5574717597662531  0.4127078061819996  0.4851165335276952
  0.5156025802356439  0.4292872231013993  0.4466330265731768
  0.5009377730964356  0.3959355447943804  0.4938581753825048
  0.5103942193325041  0.5532418574511709  0.5111879422204626
  0.6073242222509173  0.5682161314132386  0.5182575426631757
  0.5880954726696735  0.5798978669457218  0.4635273491142739
  0.5647973800346431  0.6093714150765879  0.5099256691703212
  0.3909741178722865  0.5036715940790891  0.5052379136602480
  0.4406165255220568  0.5131474041616342  0.5088367481427418
  0.5146937938574513  0.4656244022826637  0.5091514533963877
  0.5226354093132327  0.4231260554273293  0.4820971250213616
  0.5516176625110674  0.5003752641927985  0.4976645657444701
  0.5776472519398665  0.5770521844426559  0.4986104198045720
  0.4666495947656903  0.4762351928587118  0.5039025696126839
  0.5429583691154450  0.5438403223254116  0.5042977973435825
  0.4541525553739772  0.5516629708477585  0.5158758673291887
  0.5888294491008940  0.4860269275317432  0.4866759826867514
 
             NaN             NaN             NaN
             NaN             NaN             NaN
             NaN             NaN             NaN
             NaN             NaN             NaN
             NaN             NaN             NaN
             NaN             NaN             NaN
             NaN             NaN             NaN
             NaN             NaN             NaN
             NaN             NaN             NaN
             NaN             NaN             NaN
             NaN             NaN             NaN
             NaN             NaN             NaN
             NaN             NaN             NaN
             NaN             NaN             NaN
             NaN             NaN             NaN
             NaN             NaN             NaN
             NaN             NaN             NaN
             NaN             NaN             NaN
             NaN             NaN             NaN
             NaN             NaN             NaN
             NaN             NaN             NaN
             NaN             NaN             NaN
