H12 C6 N2 O2                            
   1.00000000000000     
    30.0000000000000000    0.0000000000000000    0.0000000000000000
     0.0000000000000000   30.0000000000000000    0.0000000000000000
     0.0000000000000000    0.0000000000000000   30.0000000000000000
   H    C    N    O 
    12     6     2     2
Direct
  0.3752335214206122  0.5370198084246919  0.4992277931632984
  0.3804057037014769  0.4817944813921125  0.4778041676677106
  0.3794556612868963  0.4908463754073107  0.5363143120609507
  0.4491230327195476  0.4467489209551083  0.5136940724331801
  0.5235453259822896  0.4560845782140182  0.5439977286079157
  0.5577441530775781  0.4125768809411398  0.4845982302417746
  0.5163174268653682  0.4279343737883531  0.4457303932630247
  0.5013107332334429  0.3954307703271510  0.4934645357412282
  0.5120081783192288  0.5522620215996363  0.5143362125668713
  0.6087954398569930  0.5722902593958934  0.5189314925204784
  0.5837414882968611  0.5796242160884824  0.4656988599343689
  0.5623545378068081  0.6088971403978125  0.5129323259074705
  0.3911304941563694  0.5046400735988373  0.5044756914598845
  0.4413160515721093  0.5126562803738586  0.5040831982863075
  0.5152037084744228  0.4647270770060333  0.5089731067981198
  0.5228080277375808  0.4224562695405271  0.4812935867887252
  0.5506106264146936  0.5003719981219221  0.4961420365246805
  0.5769963797904899  0.5774579910959489  0.5016330011420597
  0.4668698543363540  0.4752180575370371  0.5087048777813736
  0.5449072736409031  0.5422502724551892  0.5120816312338828
  0.4558163267084947  0.5511731043010826  0.4997006307482048
  0.5843073266672637  0.4875363377970945  0.4761815112742731
 
             NaN             NaN             NaN
             NaN             NaN             NaN
             NaN             NaN             NaN
             NaN             NaN             NaN
             NaN             NaN             NaN
             NaN             NaN             NaN
             NaN             NaN             NaN
             NaN             NaN             NaN
             NaN             NaN             NaN
             NaN             NaN             NaN
             NaN             NaN             NaN
             NaN             NaN             NaN
             NaN             NaN             NaN
             NaN             NaN             NaN
             NaN             NaN             NaN
             NaN             NaN             NaN
             NaN             NaN             NaN
             NaN             NaN             NaN
             NaN             NaN             NaN
             NaN             NaN             NaN
             NaN             NaN             NaN
             NaN             NaN             NaN
