H12 C6 N2 O2                            
   1.00000000000000     
    30.0000000000000000    0.0000000000000000    0.0000000000000000
     0.0000000000000000   30.0000000000000000    0.0000000000000000
     0.0000000000000000    0.0000000000000000   30.0000000000000000
   H    C    N    O 
    12     6     2     2
Direct
  0.3773992204849075  0.5446012973163875  0.4970904070980367
  0.3881069007964474  0.4952369927328644  0.4651226350907647
  0.3752610095468398  0.4911338684972167  0.5228453070829535
  0.4507291886926498  0.4545784150366168  0.4834581011414708
  0.5094153144243591  0.4652215589507820  0.5533418478728900
  0.5542989723317784  0.4096281855350669  0.5076183841630963
  0.5197029487656172  0.4213378703419171  0.4611817590651142
  0.4961670235018878  0.3957314933384454  0.5097779728645199
  0.5124550712156701  0.5525705106204986  0.5066067987009101
  0.6109787144680117  0.5544975870521334  0.4909963779068680
  0.5766967511277326  0.5806871686431215  0.4500055539164942
  0.5773569770389605  0.6016474970957345  0.5057860341746138
  0.3926654140035485  0.5114457898644691  0.4976918953821826
  0.4413745222816989  0.5154670999705152  0.5106629518012917
  0.5111841255639816  0.4666292451995684  0.5165225439577149
  0.5207590502186993  0.4201798291894112  0.4978830492909808
  0.5516804866291881  0.4970993210984215  0.5054473096163788
  0.5789110235837709  0.5712161787689427  0.4854511070690601
  0.4669979045418647  0.4796750431327348  0.4994346821810468
  0.5433560800370761  0.5406746328858980  0.4975174670102721
  0.4561869245172525  0.5487355119105733  0.5304085240594525
  0.5894395325565236  0.4802925273311968  0.5047979893648380
 
             NaN             NaN             NaN
             NaN             NaN             NaN
             NaN             NaN             NaN
             NaN             NaN             NaN
             NaN             NaN             NaN
             NaN             NaN             NaN
             NaN             NaN             NaN
             NaN             NaN             NaN
             NaN             NaN             NaN
             NaN             NaN             NaN
             NaN             NaN             NaN
             NaN             NaN             NaN
             NaN             NaN             NaN
             NaN             NaN             NaN
             NaN             NaN             NaN
             NaN             NaN             NaN
             NaN             NaN             NaN
             NaN             NaN             NaN
             NaN             NaN             NaN
             NaN             NaN             NaN
             NaN             NaN             NaN
             NaN             NaN             NaN
