H12 C6 N2 O2                            
   1.00000000000000     
    30.0000000000000000    0.0000000000000000    0.0000000000000000
     0.0000000000000000   30.0000000000000000    0.0000000000000000
     0.0000000000000000    0.0000000000000000   30.0000000000000000
   H    C    N    O 
    12     6     2     2
Direct
  0.3771560453287311  0.5445793341469031  0.5004799151423174
  0.3851453266389842  0.4960975179001741  0.4660537141040454
  0.3802420535382554  0.4903640701901376  0.5248947468798273
  0.4509625450636321  0.4549381662635157  0.4838358930976344
  0.5048050117459492  0.4641222851039002  0.5541484509077618
  0.5565526256821983  0.4136300640918810  0.5054385432295603
  0.5171886035403822  0.4227269267021199  0.4620463790193050
  0.4998707881871395  0.3950773171931267  0.5111670548810969
  0.5131282613391686  0.5533470824543547  0.5119333726656879
  0.6106859263893442  0.5518018286395294  0.4864040736831696
  0.5703386247535382  0.5723274767903946  0.4478978841460564
  0.5798394753359590  0.6018199423057198  0.4981749126636962
  0.3932013669587633  0.5119249418597627  0.4981166413218925
  0.4424510869026126  0.5176795369397261  0.5062437046712973
  0.5101776967374716  0.4670606067763925  0.5178816734737646
  0.5215511662010260  0.4215164277136387  0.4984021808610363
  0.5514278447166714  0.4968960841928058  0.5102661453391830
  0.5781652561560083  0.5683384630553333  0.4835566196683659
  0.4676890261749633  0.4810004963372690  0.4972641770177688
  0.5445823892364404  0.5411045870379587  0.5047628131176920
  0.4573477416428598  0.5530987998159944  0.5219960094564118
  0.5884720446258758  0.4787891368908622  0.5087812618551205
 
             NaN             NaN             NaN
             NaN             NaN             NaN
             NaN             NaN             NaN
             NaN             NaN             NaN
             NaN             NaN             NaN
             NaN             NaN             NaN
             NaN             NaN             NaN
             NaN             NaN             NaN
             NaN             NaN             NaN
             NaN             NaN             NaN
             NaN             NaN             NaN
             NaN             NaN             NaN
             NaN             NaN             NaN
             NaN             NaN             NaN
             NaN             NaN             NaN
             NaN             NaN             NaN
             NaN             NaN             NaN
             NaN             NaN             NaN
             NaN             NaN             NaN
             NaN             NaN             NaN
             NaN             NaN             NaN
             NaN             NaN             NaN
