H3 C2 N1                                
   1.00000000000000     
    30.0000000000000000    0.0000000000000000    0.0000000000000000
     0.0000000000000000   30.0000000000000000    0.0000000000000000
     0.0000000000000000    0.0000000000000000   30.0000000000000000
   H    C    N 
     3     2     1
Direct
  0.4746981722938158  0.4649489566760104  0.5069057329710044
  0.4743134139980332  0.5107057489385024  0.4662249485651189
  0.4770102496314300  0.5219083000625603  0.5248795880595274
  0.4861357661084450  0.4982232297141149  0.4981500602860536
  0.5395874154080649  0.4891687095235817  0.4874986264881722
  0.5482774408323270  0.5150338619458923  0.5163210403459862
 
             NaN             NaN             NaN
             NaN             NaN             NaN
             NaN             NaN             NaN
             NaN             NaN             NaN
             NaN             NaN             NaN
             NaN             NaN             NaN
