H3 C2 N1                                
   1.00000000000000     
    30.0000000000000000    0.0000000000000000    0.0000000000000000
     0.0000000000000000   30.0000000000000000    0.0000000000000000
     0.0000000000000000    0.0000000000000000   30.0000000000000000
   H    C    N 
     3     2     1
Direct
  0.4746593687478183  0.4649602787072801  0.5067759132263302
  0.4744368825237344  0.5107847562906702  0.4661711852772433
  0.4769445713527398  0.5218850681302779  0.5248567812634953
  0.4861462817136327  0.4982441897509711  0.4981166931778112
  0.5396467698130734  0.4891207479544852  0.4875952029998643
  0.5481885857024209  0.5149937631554382  0.5164642227343050
 
             NaN             NaN             NaN
             NaN             NaN             NaN
             NaN             NaN             NaN
             NaN             NaN             NaN
             NaN             NaN             NaN
             NaN             NaN             NaN
