H3 C2 N1                                
   1.00000000000000     
    30.0000000000000000    0.0000000000000000    0.0000000000000000
     0.0000000000000000   30.0000000000000000    0.0000000000000000
     0.0000000000000000    0.0000000000000000   30.0000000000000000
   H    C    N 
     3     2     1
Direct
  0.4717842094063328  0.4648409704120276  0.5049570629002031
  0.4744417254301822  0.5097164103026506  0.4635374276517060
  0.4762965825675312  0.5218269290582420  0.5219211689168592
  0.4851396784947347  0.4972544979250587  0.4957835124777996
  0.5355502271459948  0.4917562807114812  0.4931305513288177
  0.5548355288666174  0.5132007011301138  0.5195024547723281
 
             NaN             NaN             NaN
             NaN             NaN             NaN
             NaN             NaN             NaN
             NaN             NaN             NaN
             NaN             NaN             NaN
             NaN             NaN             NaN
