H3 C2 N1                                
   1.00000000000000     
    30.0000000000000000    0.0000000000000000    0.0000000000000000
     0.0000000000000000   30.0000000000000000    0.0000000000000000
     0.0000000000000000    0.0000000000000000   30.0000000000000000
   H    C    N 
     3     2     1
Direct
  0.4716541596171016  0.4649967554790135  0.5050125008659345
  0.4743577994829477  0.5099496839312170  0.4637063217500337
  0.4765817700074003  0.5220055581916437  0.5222030439940144
  0.4852197836451267  0.4974099356245195  0.4959179038048492
  0.5361045811324350  0.4911991185611361  0.4924678880778122
  0.5542473119448157  0.5128894666312600  0.5196070888870858
 
             NaN             NaN             NaN
             NaN             NaN             NaN
             NaN             NaN             NaN
             NaN             NaN             NaN
             NaN             NaN             NaN
             NaN             NaN             NaN
