H3 C2 N1                                
   1.00000000000000     
    30.0000000000000000    0.0000000000000000    0.0000000000000000
     0.0000000000000000   30.0000000000000000    0.0000000000000000
     0.0000000000000000    0.0000000000000000   30.0000000000000000
   H    C    N 
     3     2     1
Direct
  0.4694900340966824  0.4709544714780167  0.5150582739324473
  0.4666118696579187  0.5137672787769652  0.4736262761080157
  0.4811819710978894  0.5275485778714775  0.5298031117352942
  0.4845046583983244  0.5022958525211296  0.5034665997550464
  0.5681155649799349  0.4899394722551394  0.4847615855005352
  0.5301054549506883  0.4955060007779846  0.4932801880964822
 
             NaN             NaN             NaN
             NaN             NaN             NaN
             NaN             NaN             NaN
             NaN             NaN             NaN
             NaN             NaN             NaN
             NaN             NaN             NaN
