H3 C2 N1                                
   1.00000000000000     
    30.0000000000000000    0.0000000000000000    0.0000000000000000
     0.0000000000000000   30.0000000000000000    0.0000000000000000
     0.0000000000000000    0.0000000000000000   30.0000000000000000
   H    C    N 
     3     2     1
Direct
  0.4711128404653939  0.4686249441793970  0.5123000591759865
  0.4669193528916377  0.5145065433291548  0.4744657178192712
  0.4787586210112053  0.5242751443331207  0.5320709696398073
  0.4845515926384732  0.5016140192150845  0.5038639948466308
  0.5681023071716489  0.4931054392347637  0.4831834880874667
  0.5305654007048597  0.4978862931849328  0.4941122206340557
 
             NaN             NaN             NaN
             NaN             NaN             NaN
             NaN             NaN             NaN
             NaN             NaN             NaN
             NaN             NaN             NaN
             NaN             NaN             NaN
