H3 C2 N1                                
   1.00000000000000     
    30.0000000000000000    0.0000000000000000    0.0000000000000000
     0.0000000000000000   30.0000000000000000    0.0000000000000000
     0.0000000000000000    0.0000000000000000   30.0000000000000000
   H    C    N 
     3     2     1
Direct
  0.4832168160553633  0.4642968327586832  0.5248118880888127
  0.4634315791304563  0.4945357180026433  0.4773454888232728
  0.4758063805783506  0.5233239409431095  0.5281193637723224
  0.4859950750261731  0.4957698954582536  0.5062172255252358
  0.5676306401888169  0.5078129231894266  0.4798765876951799
  0.5305290346908199  0.5022882659257940  0.4917868474264418
 
             NaN             NaN             NaN
             NaN             NaN             NaN
             NaN             NaN             NaN
             NaN             NaN             NaN
             NaN             NaN             NaN
             NaN             NaN             NaN
