H3 C2 N1                                
   1.00000000000000     
    30.0000000000000000    0.0000000000000000    0.0000000000000000
     0.0000000000000000   30.0000000000000000    0.0000000000000000
     0.0000000000000000    0.0000000000000000   30.0000000000000000
   H    C    N 
     3     2     1
Direct
  0.4756000132192538  0.4657898226203900  0.5166287839432643
  0.4659451041576028  0.5045557538920087  0.4729583848732753
  0.4752989705319884  0.5247384800896766  0.5277969437734672
  0.4848139215987343  0.4988116845145932  0.5037907387979454
  0.5696685972705297  0.5005659241843221  0.4866692798529651
  0.5315018491343904  0.5004318290268269  0.4956193216169968
 
             NaN             NaN             NaN
             NaN             NaN             NaN
             NaN             NaN             NaN
             NaN             NaN             NaN
             NaN             NaN             NaN
             NaN             NaN             NaN
