H3 C2 N1                                
   1.00000000000000     
    30.0000000000000000    0.0000000000000000    0.0000000000000000
     0.0000000000000000   30.0000000000000000    0.0000000000000000
     0.0000000000000000    0.0000000000000000   30.0000000000000000
   H    C    N 
     3     2     1
Direct
  0.4703955291003575  0.4665198444783298  0.4949860547135484
  0.4730667057446126  0.5207467563186512  0.4705806015448135
  0.4697411113329776  0.5148525552925178  0.5297216308815470
  0.4837568397080184  0.5003878070614811  0.4991092347983996
  0.5321178942837952  0.4992096918550787  0.5017322879459387
  0.5709382828981043  0.4983132874977306  0.5038651979488827
 
             NaN             NaN             NaN
             NaN             NaN             NaN
             NaN             NaN             NaN
             NaN             NaN             NaN
             NaN             NaN             NaN
             NaN             NaN             NaN
