H3 C2 N1                                
   1.00000000000000     
    30.0000000000000000    0.0000000000000000    0.0000000000000000
     0.0000000000000000   30.0000000000000000    0.0000000000000000
     0.0000000000000000    0.0000000000000000   30.0000000000000000
   H    C    N 
     3     2     1
Direct
  0.4704004016832105  0.4665979598617733  0.4944814408860345
  0.4730353012282866  0.5212034181823687  0.4709335095780290
  0.4697659144521021  0.5143744223847012  0.5299752665100703
  0.4837556025205507  0.5003996220870123  0.4991261435142588
  0.5321272227087817  0.4991929506965314  0.5016912852844042
  0.5709327047768027  0.4982624639584761  0.5037871113577145
 
             NaN             NaN             NaN
             NaN             NaN             NaN
             NaN             NaN             NaN
             NaN             NaN             NaN
             NaN             NaN             NaN
             NaN             NaN             NaN
