H3 C2 N1                                
   1.00000000000000     
    30.0000000000000000    0.0000000000000000    0.0000000000000000
     0.0000000000000000   30.0000000000000000    0.0000000000000000
     0.0000000000000000    0.0000000000000000   30.0000000000000000
   H    C    N 
     3     2     1
Direct
  0.4706598937959666  0.4642899275989969  0.5040417372155289
  0.4732890591072795  0.5089499461174319  0.4627746711236820
  0.4754273126875540  0.5211974894067549  0.5211167929583655
  0.4844233251480195  0.4967455968079925  0.4951312002455692
  0.5330021203833656  0.4955496221414651  0.4973104617343764
  0.5612389252284813  0.5118730518151215  0.5184505672355235
 
             NaN             NaN             NaN
             NaN             NaN             NaN
             NaN             NaN             NaN
             NaN             NaN             NaN
             NaN             NaN             NaN
             NaN             NaN             NaN
