H3 C2 N1                                
   1.00000000000000     
    30.0000000000000000    0.0000000000000000    0.0000000000000000
     0.0000000000000000   30.0000000000000000    0.0000000000000000
     0.0000000000000000    0.0000000000000000   30.0000000000000000
   H    C    N 
     3     2     1
Direct
  0.4704925968398951  0.4642407956808451  0.5041973836035398
  0.4731474598772201  0.5093414527779894  0.4627900726775845
  0.4762883862433123  0.5213781675971010  0.5213736285060998
  0.4843813793486605  0.4967554554942425  0.4951060701350023
  0.5332759963708833  0.4949925729009368  0.4967228629838372
  0.5605970395775453  0.5117112008912811  0.5187435036321493
 
             NaN             NaN             NaN
             NaN             NaN             NaN
             NaN             NaN             NaN
             NaN             NaN             NaN
             NaN             NaN             NaN
             NaN             NaN             NaN
