H3 C2 N1                                
   1.00000000000000     
    30.0000000000000000    0.0000000000000000    0.0000000000000000
     0.0000000000000000   30.0000000000000000    0.0000000000000000
     0.0000000000000000    0.0000000000000000   30.0000000000000000
   H    C    N 
     3     2     1
Direct
  0.4762385672575825  0.4615259855990315  0.4959171212129388
  0.4668226326764884  0.5159300221540789  0.4733929580986677
  0.4714077650446679  0.5084240314001355  0.5322764482892838
  0.4839518543135847  0.4971345448997808  0.4997701907810050
  0.5317109988986064  0.5048927750407062  0.4985497121823895
  0.5698782360052983  0.5121116024449143  0.5000935277617917
 
             NaN             NaN             NaN
             NaN             NaN             NaN
             NaN             NaN             NaN
             NaN             NaN             NaN
             NaN             NaN             NaN
             NaN             NaN             NaN
