H3 C2 N1                                
   1.00000000000000     
    30.0000000000000000    0.0000000000000000    0.0000000000000000
     0.0000000000000000   30.0000000000000000    0.0000000000000000
     0.0000000000000000    0.0000000000000000   30.0000000000000000
   H    C    N 
     3     2     1
Direct
  0.4757680543332632  0.4614937401155367  0.4961048824133361
  0.4664592826429208  0.5159983010407933  0.4735241436999025
  0.4724840076343260  0.5086603331540194  0.5323147188093365
  0.4839402751082307  0.4970320636252254  0.4995308815014358
  0.5316873389077499  0.5045410396632904  0.4978532301114788
  0.5696710484863244  0.5122936667980442  0.5006720510691947
 
             NaN             NaN             NaN
             NaN             NaN             NaN
             NaN             NaN             NaN
             NaN             NaN             NaN
             NaN             NaN             NaN
             NaN             NaN             NaN
