H3 C2 N1                                
   1.00000000000000     
    30.0000000000000000    0.0000000000000000    0.0000000000000000
     0.0000000000000000   30.0000000000000000    0.0000000000000000
     0.0000000000000000    0.0000000000000000   30.0000000000000000
   H    C    N 
     3     2     1
Direct
  0.4722537069412939  0.4633022827861534  0.5040276892599701
  0.4719245471160202  0.5081173745278770  0.4642516435825182
  0.4710012117057003  0.5198858278889110  0.5226536608983265
  0.4840827525735074  0.4972369378762169  0.4970291444549305
  0.5320651319672193  0.5013307426414291  0.5012269599083793
  0.5686951081858408  0.5101156407451767  0.5107908988817105
 
             NaN             NaN             NaN
             NaN             NaN             NaN
             NaN             NaN             NaN
             NaN             NaN             NaN
             NaN             NaN             NaN
             NaN             NaN             NaN
