H3 C2 N1                                
   1.00000000000000     
    30.0000000000000000    0.0000000000000000    0.0000000000000000
     0.0000000000000000   30.0000000000000000    0.0000000000000000
     0.0000000000000000    0.0000000000000000   30.0000000000000000
   H    C    N 
     3     2     1
Direct
  0.4721446700639093  0.4633075007516487  0.5039336869881587
  0.4719442044126945  0.5082053671550081  0.4642018241482861
  0.4712029721141271  0.5198816663919316  0.5226305610399552
  0.4840937984249715  0.4971984489303936  0.4969382505908994
  0.5320763823378301  0.5011967577969494  0.5011821530157151
  0.5685604321656554  0.5101990635701631  0.5110935224810572
 
             NaN             NaN             NaN
             NaN             NaN             NaN
             NaN             NaN             NaN
             NaN             NaN             NaN
             NaN             NaN             NaN
             NaN             NaN             NaN
