H3 C2 N1                                
   1.00000000000000     
    30.0000000000000000    0.0000000000000000    0.0000000000000000
     0.0000000000000000   30.0000000000000000    0.0000000000000000
     0.0000000000000000    0.0000000000000000   30.0000000000000000
   H    C    N 
     3     2     1
Direct
  0.4737661197354424  0.4635327449889433  0.4981335199035118
  0.4702927355396533  0.5160515938590690  0.4703270695989651
  0.4692652225093406  0.5137299534519014  0.5298024838233573
  0.4837777209866250  0.4987460819375907  0.4996758929550038
  0.5320702650030203  0.5024764435918865  0.5006449146778421
  0.5708367584929454  0.5054790320225470  0.5014092402414215
 
             NaN             NaN             NaN
             NaN             NaN             NaN
             NaN             NaN             NaN
             NaN             NaN             NaN
             NaN             NaN             NaN
             NaN             NaN             NaN
