H3 C2 N1                                
   1.00000000000000     
    30.0000000000000000    0.0000000000000000    0.0000000000000000
     0.0000000000000000   30.0000000000000000    0.0000000000000000
     0.0000000000000000    0.0000000000000000   30.0000000000000000
   H    C    N 
     3     2     1
Direct
  0.4742473249326179  0.4634590957161349  0.4979168793449060
  0.4705456986307922  0.5161321481939924  0.4704223902016873
  0.4685588519971110  0.5133635533163385  0.5298557050442818
  0.4837703654399519  0.4987863591546950  0.4998675321949454
  0.5320483706759014  0.5027745813944513  0.5009885138980087
  0.5708382964765922  0.5055003499943463  0.5009426208559473
 
             NaN             NaN             NaN
             NaN             NaN             NaN
             NaN             NaN             NaN
             NaN             NaN             NaN
             NaN             NaN             NaN
             NaN             NaN             NaN
