H3 C2 N1
1.0
30.000000 0.000000 0.000000
0.000000 30.000000 0.000000
0.000000 0.000000 30.000000
H C N
3 2 1
direct
0.471380 0.466813 0.508905 H
0.471450 0.508993 0.466735 H
0.471460 0.524433 0.524345 H
0.483960 0.500063 0.499995 C
0.570550 0.499763 0.499995 C
0.531200 0.499933 0.500025 N
