H12 C6 N2 O2                            
   1.00000000000000     
    30.0000000000000000    0.0000000000000000    0.0000000000000000
     0.0000000000000000   30.0000000000000000    0.0000000000000000
     0.0000000000000000    0.0000000000000000   30.0000000000000000
   H    C    N    O 
    12     6     2     2
Direct
  0.3842519644057688  0.5525298187168211  0.5118855803102659
  0.3877208346993584  0.5015401339791810  0.4809931503636682
  0.3793914674211264  0.5002275600339564  0.5396884862337473
  0.4505203143309333  0.4533045079359173  0.4999501293636025
  0.5226355615336528  0.4914946849402418  0.5527371171753490
  0.5599860436040037  0.4178564332276845  0.5367921240367606
  0.5170998805546252  0.4038101033178073  0.4991925585557476
  0.5046491203119872  0.4100865906282458  0.5574816870611268
  0.5234312662712527  0.5529169795721509  0.5023305070399572
  0.6024159412435075  0.5446473705475802  0.4426463795995616
  0.5517227503724431  0.5575961016236585  0.4148647547946072
  0.5729870064436492  0.5947754211515272  0.4564370299795641
  0.3964060203266521  0.5181093263523442  0.5125344303696112
  0.4462732234452954  0.5185474773487028  0.5205912949438225
  0.5153543223232246  0.4723116728666759  0.5222318812673709
  0.5245093728376494  0.4230087851951396  0.5295369152985613
  0.5451884578553825  0.4911344767128617  0.4843088952909256
  0.5692964785106169  0.5596131416050522  0.4470963918951862
  0.4679332694959160  0.4794556423659591  0.5126785298764619
  0.5454771257698970  0.5362651959045999  0.4820959551134363
  0.4661916699915835  0.5522799850241930  0.5342407484041204
  0.5667481073225030  0.4666760460813760  0.4590339033417614
 
             NaN             NaN             NaN
             NaN             NaN             NaN
             NaN             NaN             NaN
             NaN             NaN             NaN
             NaN             NaN             NaN
             NaN             NaN             NaN
             NaN             NaN             NaN
             NaN             NaN             NaN
             NaN             NaN             NaN
             NaN             NaN             NaN
             NaN             NaN             NaN
             NaN             NaN             NaN
             NaN             NaN             NaN
             NaN             NaN             NaN
             NaN             NaN             NaN
             NaN             NaN             NaN
             NaN             NaN             NaN
             NaN             NaN             NaN
             NaN             NaN             NaN
             NaN             NaN             NaN
             NaN             NaN             NaN
             NaN             NaN             NaN
