H12 C6 N2 O2                            
   1.00000000000000     
    30.0000000000000000    0.0000000000000000    0.0000000000000000
     0.0000000000000000   30.0000000000000000    0.0000000000000000
     0.0000000000000000    0.0000000000000000   30.0000000000000000
   H    C    N    O 
    12     6     2     2
Direct
  0.3842938265460508  0.5530395286765760  0.5131461589673331
  0.3857371621228209  0.5024386930061733  0.4815880230809214
  0.3801216388700929  0.5002514936671005  0.5404540150040337
  0.4502986722011649  0.4524174098070146  0.5007775706744897
  0.5215436627771068  0.4913795032900830  0.5536698037307300
  0.5622870744509617  0.4198846363905509  0.5364873281706317
  0.5184200698237728  0.4040121737241032  0.5001864531728539
  0.5077510783636612  0.4096164230878001  0.5586873374168884
  0.5240959234476658  0.5541568296353753  0.5026408705504530
  0.6014929754562347  0.5436460494996664  0.4410212197023347
  0.5504226382298726  0.5554044913737188  0.4138820994669012
  0.5729617568826084  0.5940510756118530  0.4537349204675425
  0.3960392884076269  0.5184444254494561  0.5128646039547318
  0.4460978925305347  0.5185410910962829  0.5193634442250585
  0.5150557898897972  0.4724204629742760  0.5230131349795903
  0.5262812463584592  0.4234105633136127  0.5302590412322092
  0.5444790646334551  0.4915747235216932  0.4851631199318914
  0.5685211961149065  0.5586613785568365  0.4458201742063543
  0.4675076610213414  0.4788384310798358  0.5131051876292413
  0.5458272128193150  0.5367396833146034  0.4826202676260605
  0.4661040950147914  0.5525999152764010  0.5313163934017667
  0.5648500106907641  0.4666706685391379  0.4594489254451623
 
             NaN             NaN             NaN
             NaN             NaN             NaN
             NaN             NaN             NaN
             NaN             NaN             NaN
             NaN             NaN             NaN
             NaN             NaN             NaN
             NaN             NaN             NaN
             NaN             NaN             NaN
             NaN             NaN             NaN
             NaN             NaN             NaN
             NaN             NaN             NaN
             NaN             NaN             NaN
             NaN             NaN             NaN
             NaN             NaN             NaN
             NaN             NaN             NaN
             NaN             NaN             NaN
             NaN             NaN             NaN
             NaN             NaN             NaN
             NaN             NaN             NaN
             NaN             NaN             NaN
             NaN             NaN             NaN
             NaN             NaN             NaN
