H3 C2 N1                                
   1.00000000000000     
    30.0000000000000000    0.0000000000000000    0.0000000000000000
     0.0000000000000000   30.0000000000000000    0.0000000000000000
     0.0000000000000000    0.0000000000000000   30.0000000000000000
   H    C    N 
     3     2     1
Direct
  0.4733803471092859  0.4644084866465183  0.5062785779002821
  0.4730180566928399  0.5101490146085752  0.4656262290267012
  0.4775929296639674  0.5212087245813772  0.5240897810188825
  0.4855017135130570  0.4972649871552218  0.4970807098120645
  0.5364051137071764  0.4917835344272903  0.4904612036180962
  0.5541242978763660  0.5151740589140154  0.5164434957005758
 
             NaN             NaN             NaN
             NaN             NaN             NaN
             NaN             NaN             NaN
             NaN             NaN             NaN
             NaN             NaN             NaN
             NaN             NaN             NaN
