H3 C2 N1                                
   1.00000000000000     
    30.0000000000000000    0.0000000000000000    0.0000000000000000
     0.0000000000000000   30.0000000000000000    0.0000000000000000
     0.0000000000000000    0.0000000000000000   30.0000000000000000
   H    C    N 
     3     2     1
Direct
  0.4733534394204196  0.4644236358404766  0.5061660623189804
  0.4731423052306176  0.5102262165168163  0.4655805740225702
  0.4775412629224459  0.5211952845802333  0.5240759389879812
  0.4855186459681534  0.4972871872843193  0.4970557376596719
  0.5364747461707944  0.4917111651339099  0.4905061372370188
  0.5539920598719978  0.5151453151218346  0.5165955481188756
 
             NaN             NaN             NaN
             NaN             NaN             NaN
             NaN             NaN             NaN
             NaN             NaN             NaN
             NaN             NaN             NaN
             NaN             NaN             NaN
