H12 C6 N2 O2                            
   1.00000000000000     
    30.0000000000000000    0.0000000000000000    0.0000000000000000
     0.0000000000000000   30.0000000000000000    0.0000000000000000
     0.0000000000000000    0.0000000000000000   30.0000000000000000
   H    C    N    O 
    12     6     2     2
Direct
  0.3792465738081673  0.5326979668603745  0.4901344893300892
  0.3821457104937254  0.4858687445172671  0.4537016901563730
  0.3841268797496425  0.4774846757717839  0.5123799087783800
  0.4510038330235960  0.4396218276427660  0.4985527189516770
  0.5233416030371021  0.4262848062543266  0.4929565823029930
  0.5727168633064327  0.4704895106637825  0.4422022429457370
  0.5289872831855045  0.5098886040282973  0.4337419855220653
  0.5223485813540062  0.4536678225407033  0.4155088506164553
  0.5159104281292032  0.5445049140449795  0.5092385714630215
  0.5514054593404100  0.5438344491623321  0.5977309710818414
  0.5982506319344834  0.5474259690871821  0.5617795104732776
  0.5558631771182314  0.5894539392676702  0.5594363615797818
  0.3945166730774211  0.4998881460830665  0.4852746014759255
  0.4447421972690699  0.5053451980638881  0.4831524746059265
  0.5172871796108831  0.4619697797650695  0.4874248402877223
  0.5363473010309120  0.4750009194152334  0.4418288980500895
  0.5430657654839312  0.4843652728476150  0.5261795280662040
  0.5621937535840593  0.5537471746120024  0.5640575996216723
  0.4685494516461893  0.4673125528025551  0.4901021963871353
  0.5385308873392165  0.5290780980453461  0.5298365740325055
  0.4624464245711403  0.5419888071466709  0.4751419075956849
  0.5674105809094709  0.4617473426150766  0.5507301609561163
 
             NaN             NaN             NaN
             NaN             NaN             NaN
             NaN             NaN             NaN
             NaN             NaN             NaN
             NaN             NaN             NaN
             NaN             NaN             NaN
             NaN             NaN             NaN
             NaN             NaN             NaN
             NaN             NaN             NaN
             NaN             NaN             NaN
             NaN             NaN             NaN
             NaN             NaN             NaN
             NaN             NaN             NaN
             NaN             NaN             NaN
             NaN             NaN             NaN
             NaN             NaN             NaN
             NaN             NaN             NaN
             NaN             NaN             NaN
             NaN             NaN             NaN
             NaN             NaN             NaN
             NaN             NaN             NaN
             NaN             NaN             NaN
