H12 C6 N2 O2                            
   1.00000000000000     
    30.0000000000000000    0.0000000000000000    0.0000000000000000
     0.0000000000000000   30.0000000000000000    0.0000000000000000
     0.0000000000000000    0.0000000000000000   30.0000000000000000
   H    C    N    O 
    12     6     2     2
Direct
  0.3792027036585315  0.5326533194734503  0.4901808043316395
  0.3808136873922751  0.4845455512303993  0.4546738664224748
  0.3839166605505561  0.4777315462292033  0.5133605457232520
  0.4507490222258182  0.4384666433345488  0.4971362413414722
  0.5241135096159480  0.4269702951873063  0.4937357599358940
  0.5733903373782034  0.4720476837769509  0.4433750906738327
  0.5285320500007235  0.5098981073750241  0.4332915879404868
  0.5239629076166409  0.4537183588377877  0.4154473892767461
  0.5172928257306219  0.5469030460885931  0.5076015750477667
  0.5521967381339675  0.5419823275091901  0.5973061169116276
  0.5985758552318108  0.5454009212154491  0.5611177235969518
  0.5580354816751522  0.5894091606208489  0.5614664896673598
  0.3937830111481897  0.4994747240609138  0.4855742007019568
  0.4439875811150895  0.5045713238817200  0.4825750958138844
  0.5169733811452484  0.4623153949296453  0.4873914738218080
  0.5368235099897734  0.4753939328649114  0.4420665661572377
  0.5419030825632827  0.4855282754931518  0.5261622251927374
  0.5629078472424117  0.5532925980179193  0.5640794125123187
  0.4680333602374591  0.4665932149662806  0.4895081343119297
  0.5382574044639842  0.5304699728184191  0.5291666250877876
  0.4615683694942087  0.5409713672175545  0.4741635563561261
  0.5654144584718570  0.4633163043098394  0.5517048423378870
 
             NaN             NaN             NaN
             NaN             NaN             NaN
             NaN             NaN             NaN
             NaN             NaN             NaN
             NaN             NaN             NaN
             NaN             NaN             NaN
             NaN             NaN             NaN
             NaN             NaN             NaN
             NaN             NaN             NaN
             NaN             NaN             NaN
             NaN             NaN             NaN
             NaN             NaN             NaN
             NaN             NaN             NaN
             NaN             NaN             NaN
             NaN             NaN             NaN
             NaN             NaN             NaN
             NaN             NaN             NaN
             NaN             NaN             NaN
             NaN             NaN             NaN
             NaN             NaN             NaN
             NaN             NaN             NaN
             NaN             NaN             NaN
