H3 C2 N1                                
   1.00000000000000     
    30.0000000000000000    0.0000000000000000    0.0000000000000000
     0.0000000000000000   30.0000000000000000    0.0000000000000000
     0.0000000000000000    0.0000000000000000   30.0000000000000000
   H    C    N 
     3     2     1
Direct
  0.4799454887738243  0.4639580110978382  0.5005143809390468
  0.4704886551699518  0.5185571058302023  0.4780271851148315
  0.4749047305228999  0.5110459613394495  0.5374286253334957
  0.4864036633833502  0.4997589442701655  0.5052197885310314
  0.5521166407720990  0.4977416796735604  0.4720180154833032
  0.5361508790310776  0.5089572458824991  0.5067919666359677
 
             NaN             NaN             NaN
             NaN             NaN             NaN
             NaN             NaN             NaN
             NaN             NaN             NaN
             NaN             NaN             NaN
             NaN             NaN             NaN
