H3 C2 N1                                
   1.00000000000000     
    30.0000000000000000    0.0000000000000000    0.0000000000000000
     0.0000000000000000   30.0000000000000000    0.0000000000000000
     0.0000000000000000    0.0000000000000000   30.0000000000000000
   H    C    N 
     3     2     1
Direct
  0.4801248988471177  0.4640980513569073  0.5005245839115835
  0.4708388514344961  0.5186945549441123  0.4778808390511678
  0.4749899788360195  0.5112567954375510  0.5373338894636703
  0.4865637691468145  0.4998958218378824  0.5051508925798902
  0.5508076357811661  0.4967855059846182  0.4719341090058807
  0.5366849239902435  0.5092882183446498  0.5071756475443070
 
             NaN             NaN             NaN
             NaN             NaN             NaN
             NaN             NaN             NaN
             NaN             NaN             NaN
             NaN             NaN             NaN
             NaN             NaN             NaN
