H12 C6 N2 O2                            
   1.00000000000000     
    30.0000000000000000    0.0000000000000000    0.0000000000000000
     0.0000000000000000   30.0000000000000000    0.0000000000000000
     0.0000000000000000    0.0000000000000000   30.0000000000000000
   H    C    N    O 
    12     6     2     2
Direct
  0.3775605713486500  0.5416661347221349  0.5157293996906077
  0.3847994901948052  0.4970548807058034  0.4766643509428524
  0.3773077825666085  0.4851691242656950  0.5343225312351104
  0.4510255859506929  0.4504563109440192  0.4883104606062021
  0.5179139851700739  0.4857803398429777  0.5485602875590937
  0.5614216755823588  0.4177916527952879  0.5251212263054564
  0.5221665469827932  0.4073668463720324  0.4825443699828637
  0.5053459386292820  0.4033697337872857  0.5399606950708966
  0.5218233636464790  0.5533685828548816  0.5125147341056703
  0.6090785957186990  0.5593682408183291  0.4684678310499354
  0.5653562378353159  0.5731638620183784  0.4308589393994623
  0.5722599216494320  0.6045272128568252  0.4811876601406307
  0.3924297742320324  0.5087393324451286  0.5105147282893580
  0.4422044462460750  0.5117116399809470  0.5182128176689670
  0.5138308511214162  0.4707441095223407  0.5152693562033769
  0.5261823313962604  0.4217274111963815  0.5159937171324530
  0.5448890915459079  0.4968818528209648  0.4830432001914167
  0.5744292374218672  0.5711882814702994  0.4663382276323048
  0.4665514544329204  0.4759873730440169  0.5043269123224110
  0.5453288721943272  0.5413748721298161  0.4907924059599683
  0.4599737582806560  0.5441961384586669  0.5368852857736731
  0.5681206255003085  0.4783686929885320  0.4543776941032251
 
             NaN             NaN             NaN
             NaN             NaN             NaN
             NaN             NaN             NaN
             NaN             NaN             NaN
             NaN             NaN             NaN
             NaN             NaN             NaN
             NaN             NaN             NaN
             NaN             NaN             NaN
             NaN             NaN             NaN
             NaN             NaN             NaN
             NaN             NaN             NaN
             NaN             NaN             NaN
             NaN             NaN             NaN
             NaN             NaN             NaN
             NaN             NaN             NaN
             NaN             NaN             NaN
             NaN             NaN             NaN
             NaN             NaN             NaN
             NaN             NaN             NaN
             NaN             NaN             NaN
             NaN             NaN             NaN
             NaN             NaN             NaN
