H12 C6 N2 O2                            
   1.00000000000000     
    30.0000000000000000    0.0000000000000000    0.0000000000000000
     0.0000000000000000   30.0000000000000000    0.0000000000000000
     0.0000000000000000    0.0000000000000000   30.0000000000000000
   H    C    N    O 
    12     6     2     2
Direct
  0.3794668904778050  0.5367763223155693  0.4976588719341215
  0.3769822650844564  0.4818931304276711  0.4750587720116211
  0.3860830698107730  0.4892549478117270  0.5332063541800681
  0.4494154797186704  0.4443423796776365  0.5195304650221491
  0.5197894566419332  0.4258971915010341  0.5093715582868159
  0.5608717995175617  0.4488878040629228  0.4414338605718973
  0.5198960499393991  0.4904194516323915  0.4296122048040111
  0.5052028272622132  0.4327548317532220  0.4283292185105953
  0.5157239829994043  0.5446925705641585  0.4994672521106725
  0.5700747296848302  0.5616614636354558  0.5764047143334901
  0.6073221615517759  0.5561551159762301  0.5307585034844767
  0.5646294943163573  0.5979432842645430  0.5293399019033380
  0.3934247405185806  0.5031280535442317  0.5000659276915801
  0.4431037606867569  0.5053373678389426  0.4909036210227964
  0.5141849097364403  0.4592312532328513  0.4952907045419032
  0.5255963572289017  0.4579527138619426  0.4454595293871254
  0.5476922662263526  0.4886497103872510  0.5213818397465230
  0.5726341699461182  0.5638499898713020  0.5398410492170446
  0.4667440748256984  0.4687949034993271  0.5037834993306927
  0.5421327595378239  0.5332385034667195  0.5181297747794397
  0.4604880439830095  0.5382949464373985  0.4726585358003071
  0.5785468725106613  0.4708437139764908  0.5423140500941015
 
             NaN             NaN             NaN
             NaN             NaN             NaN
             NaN             NaN             NaN
             NaN             NaN             NaN
             NaN             NaN             NaN
             NaN             NaN             NaN
             NaN             NaN             NaN
             NaN             NaN             NaN
             NaN             NaN             NaN
             NaN             NaN             NaN
             NaN             NaN             NaN
             NaN             NaN             NaN
             NaN             NaN             NaN
             NaN             NaN             NaN
             NaN             NaN             NaN
             NaN             NaN             NaN
             NaN             NaN             NaN
             NaN             NaN             NaN
             NaN             NaN             NaN
             NaN             NaN             NaN
             NaN             NaN             NaN
             NaN             NaN             NaN
