H12 C6 N2 O2                            
   1.00000000000000     
    30.0000000000000000    0.0000000000000000    0.0000000000000000
     0.0000000000000000   30.0000000000000000    0.0000000000000000
     0.0000000000000000    0.0000000000000000   30.0000000000000000
   H    C    N    O 
    12     6     2     2
Direct
  0.3784772550727317  0.5369573381602976  0.4980504777412141
  0.3763647006880448  0.4813346011607947  0.4774175450414696
  0.3850855743324469  0.4908788059993894  0.5352797394340275
  0.4482890803579235  0.4433414081516975  0.5169608007604864
  0.5194512812144284  0.4269473659292948  0.5121709174780387
  0.5606819367475981  0.4446129383198045  0.4434027625527262
  0.5205978999936227  0.4858629569861731  0.4280447445817651
  0.5049436543876084  0.4285413239755160  0.4312764730915943
  0.5160052105848379  0.5456710382183625  0.4982828568842499
  0.5726986987153119  0.5642007967644770  0.5734868799381354
  0.6084340224449947  0.5578098374748666  0.5267807610969796
  0.5656385829673753  0.5993789662536464  0.5258622646075757
  0.3926670370503862  0.5035232794137402  0.5016315354006720
  0.4424436176904645  0.5059158389883199  0.4923430109009990
  0.5138752675551036  0.4595500347763247  0.4962355577313301
  0.5255674985658443  0.4546977367650590  0.4466162579116359
  0.5476663797057162  0.4898802494563976  0.5211868179218219
  0.5739855956901904  0.5655178724484750  0.5367882934645857
  0.4662283886207196  0.4690773910524185  0.5041464249935868
  0.5428273334964810  0.5344697579762572  0.5165807889079936
  0.4596139983777105  0.5394178125513710  0.4749377150374792
  0.5784620987042630  0.4724126221096777  0.5425174037524431
 
             NaN             NaN             NaN
             NaN             NaN             NaN
             NaN             NaN             NaN
             NaN             NaN             NaN
             NaN             NaN             NaN
             NaN             NaN             NaN
             NaN             NaN             NaN
             NaN             NaN             NaN
             NaN             NaN             NaN
             NaN             NaN             NaN
             NaN             NaN             NaN
             NaN             NaN             NaN
             NaN             NaN             NaN
             NaN             NaN             NaN
             NaN             NaN             NaN
             NaN             NaN             NaN
             NaN             NaN             NaN
             NaN             NaN             NaN
             NaN             NaN             NaN
             NaN             NaN             NaN
             NaN             NaN             NaN
             NaN             NaN             NaN
