H3 C2 N1                                
   1.00000000000000     
    30.0000000000000000    0.0000000000000000    0.0000000000000000
     0.0000000000000000   30.0000000000000000    0.0000000000000000
     0.0000000000000000    0.0000000000000000   30.0000000000000000
   H    C    N 
     3     2     1
Direct
  0.4705793087207071  0.4639650138572360  0.5030669134601264
  0.4734054801872956  0.5080214336490828  0.4623334149040298
  0.4714071437579868  0.5209502113830814  0.5204809337715884
  0.4839595891007800  0.4971641008906617  0.4956092916179732
  0.5317947798215933  0.4995062998067314  0.5018172545030510
  0.5668810131716470  0.5090164613339579  0.5155053676112532
 
             NaN             NaN             NaN
             NaN             NaN             NaN
             NaN             NaN             NaN
             NaN             NaN             NaN
             NaN             NaN             NaN
             NaN             NaN             NaN
