H3 C2 N1                                
   1.00000000000000     
    30.0000000000000000    0.0000000000000000    0.0000000000000000
     0.0000000000000000   30.0000000000000000    0.0000000000000000
     0.0000000000000000    0.0000000000000000   30.0000000000000000
   H    C    N 
     3     2     1
Direct
  0.4697999512783308  0.4643512522653722  0.5030455449066101
  0.4728252223972076  0.5088550140501749  0.4626381556003694
  0.4733327566495829  0.5211672368983189  0.5210492954434867
  0.4840685707901285  0.4971482747788236  0.4953909868505060
  0.5322246359415704  0.4980637789640822  0.5004696760389351
  0.5660404966927508  0.5087508153076207  0.5163932770495197
 
             NaN             NaN             NaN
             NaN             NaN             NaN
             NaN             NaN             NaN
             NaN             NaN             NaN
             NaN             NaN             NaN
             NaN             NaN             NaN
