H12 C6 N2 O2
1.0
30.000000 0.000000 0.000000
0.000000 30.000000 0.000000
0.000000 0.000000 30.000000
H C N O
12 6 2 2
direct
0.383061 0.550616 0.525067 H
0.384631 0.498216 0.496527 H
0.385871 0.499706 0.555767 H
0.452221 0.452586 0.514357 H
0.528871 0.502476 0.547727 H
0.568161 0.428886 0.541727 H
0.522131 0.405826 0.513237 H
0.516361 0.422956 0.570417 H
0.524891 0.554086 0.490707 H
0.594091 0.535336 0.422467 H
0.540111 0.544316 0.399867 H
0.566281 0.587246 0.432117 H
0.397211 0.516976 0.525437 C
0.447631 0.520306 0.524957 C
0.518431 0.477366 0.523007 C
0.531801 0.430906 0.538157 C
0.540731 0.489336 0.477907 C
0.561651 0.551116 0.428847 C
0.469831 0.480996 0.519977 N
0.542891 0.533796 0.469937 N
0.467661 0.556296 0.529597 O
0.555471 0.460656 0.452187 O
