log             log.reactant append
units           real
atom_style      full
boundary        p p p

pair_style      lj/cut 12.500
bond_style      harmonic
angle_style     hybrid fourier cosine/periodic
dihedral_style  harmonic
#kspace_style    ewald 0.000001

special_bonds   lj/coul 0.0 0.0 1.0
pair_modify     tail yes mix arithmetic
dielectric      1.0
box tilt        large
read_data       data.reactant

#### Atom Groupings ####
group           1        id   1:6
#### END Atom Groupings ####
include "system.in.run"
