H12 C6 N2 O2                            
   1.00000000000000     
    30.0000000000000000    0.0000000000000000    0.0000000000000000
     0.0000000000000000   30.0000000000000000    0.0000000000000000
     0.0000000000000000    0.0000000000000000   30.0000000000000000
   H    C    N    O 
    12     6     2     2
Direct
  0.3786705969474318  0.5327498097891745  0.4933420642103538
  0.3804443526283527  0.4816799427534088  0.4628851278807756
  0.3854644319588329  0.4808163005590540  0.5219623809058599
  0.4515226323033673  0.4396143696033085  0.5012956208909678
  0.5232549261559852  0.4263363258193077  0.4909011021227273
  0.5682841259247415  0.4686888543317419  0.4359051587022970
  0.5260106242804915  0.5103823450660255  0.4321043722573197
  0.5148810690996132  0.4548969703897398  0.4137702545586798
  0.5146140808907316  0.5435790150644150  0.5102238199867135
  0.5544905383661421  0.5456879508635540  0.5953743440587423
  0.6006090681515295  0.5456115100684934  0.5582379244881779
  0.5600098504403512  0.5893440921814124  0.5551044107615776
  0.3941319207489116  0.4997224097153034  0.4917518745863355
  0.4441354688230514  0.5053997441841502  0.4868718680819321
  0.5169151753351062  0.4620555998862497  0.4859366316006801
  0.5323221728277521  0.4750284202665095  0.4389627544501382
  0.5459629835519774  0.4843656446500926  0.5223817280999175
  0.5649626728713441  0.5536022626869972  0.5610532498868747
  0.4685075153940094  0.4675007353463556  0.4923452832354836
  0.5395825803850990  0.5286089565913361  0.5283521825422938
  0.4612120064227326  0.5422294015824369  0.4783000430651371
  0.5740127455038592  0.4621016043632664  0.5429405731780315
 
             NaN             NaN             NaN
             NaN             NaN             NaN
             NaN             NaN             NaN
             NaN             NaN             NaN
             NaN             NaN             NaN
             NaN             NaN             NaN
             NaN             NaN             NaN
             NaN             NaN             NaN
             NaN             NaN             NaN
             NaN             NaN             NaN
             NaN             NaN             NaN
             NaN             NaN             NaN
             NaN             NaN             NaN
             NaN             NaN             NaN
             NaN             NaN             NaN
             NaN             NaN             NaN
             NaN             NaN             NaN
             NaN             NaN             NaN
             NaN             NaN             NaN
             NaN             NaN             NaN
             NaN             NaN             NaN
             NaN             NaN             NaN
