H12 C6 N2 O2                            
   1.00000000000000     
    30.0000000000000000    0.0000000000000000    0.0000000000000000
     0.0000000000000000   30.0000000000000000    0.0000000000000000
     0.0000000000000000    0.0000000000000000   30.0000000000000000
   H    C    N    O 
    12     6     2     2
Direct
  0.3783170434801005  0.5327315475228597  0.4931508567925058
  0.3800273397271230  0.4805628558682370  0.4645442895506279
  0.3856665479733251  0.4819375720304851  0.5235421608538519
  0.4512258823606561  0.4395254281807149  0.5008758238815350
  0.5230080558463748  0.4264224603357749  0.4917609175659179
  0.5682745855988567  0.4673739177847330  0.4361069217519979
  0.5262743310999672  0.5091957119242310  0.4312004440554351
  0.5148546939567615  0.4533639286385523  0.4141648238440274
  0.5153679013381574  0.5442775017994373  0.5090408898668910
  0.5552632004261805  0.5462675726743308  0.5943398189099197
  0.6012718378370181  0.5464768013921332  0.5570941285951682
  0.5605090244521369  0.5900415217135996  0.5541362003928627
  0.3939313117564487  0.4997497186436508  0.4925482749944710
  0.4438930953384728  0.5054630930739643  0.4871479270233899
  0.5167020814612230  0.4620559323004824  0.4861524883816842
  0.5323312629205759  0.4739786249039140  0.4389579858013971
  0.5455249951670365  0.4847597465034044  0.5225924451107605
  0.5655898048494504  0.5543137400971666  0.5600110061924908
  0.4682527801508201  0.4675060842453094  0.4922689631773589
  0.5401854799468829  0.5292760438148539  0.5273454171537105
  0.4609236147814240  0.5423311054837392  0.4786472209593195
  0.5726069967386902  0.4623911565501204  0.5443732680245208
 
             NaN             NaN             NaN
             NaN             NaN             NaN
             NaN             NaN             NaN
             NaN             NaN             NaN
             NaN             NaN             NaN
             NaN             NaN             NaN
             NaN             NaN             NaN
             NaN             NaN             NaN
             NaN             NaN             NaN
             NaN             NaN             NaN
             NaN             NaN             NaN
             NaN             NaN             NaN
             NaN             NaN             NaN
             NaN             NaN             NaN
             NaN             NaN             NaN
             NaN             NaN             NaN
             NaN             NaN             NaN
             NaN             NaN             NaN
             NaN             NaN             NaN
             NaN             NaN             NaN
             NaN             NaN             NaN
             NaN             NaN             NaN
