H3 C2 N1                                
   1.00000000000000     
    30.0000000000000000    0.0000000000000000    0.0000000000000000
     0.0000000000000000   30.0000000000000000    0.0000000000000000
     0.0000000000000000    0.0000000000000000   30.0000000000000000
   H    C    N 
     3     2     1
Direct
  0.4736255591690502  0.4639132489073888  0.5040514174737719
  0.4740934246090078  0.5081807975041530  0.4642854011045708
  0.4661810212764004  0.5201629169845970  0.5220550620536595
  0.4838773396285909  0.4986150292626253  0.4982776328019050
  0.5318283748308836  0.5029707339025372  0.5036606575686875
  0.5703799734760151  0.5061970251527269  0.5076286864208621
 
             NaN             NaN             NaN
             NaN             NaN             NaN
             NaN             NaN             NaN
             NaN             NaN             NaN
             NaN             NaN             NaN
             NaN             NaN             NaN
