H3 C2 N1                                
   1.00000000000000     
    30.0000000000000000    0.0000000000000000    0.0000000000000000
     0.0000000000000000   30.0000000000000000    0.0000000000000000
     0.0000000000000000    0.0000000000000000   30.0000000000000000
   H    C    N 
     3     2     1
Direct
  0.4735572225187540  0.4638618740190646  0.5040026479165948
  0.4740018492799090  0.5081560219958183  0.4642520495627957
  0.4663784632358254  0.5201307204994932  0.5220625537521275
  0.4838912597690362  0.4985345086198144  0.4981985141229643
  0.5318312534684382  0.5029142505250930  0.5035848281916124
  0.5703296534939072  0.5064368211572221  0.5078605688790971
 
             NaN             NaN             NaN
             NaN             NaN             NaN
             NaN             NaN             NaN
             NaN             NaN             NaN
             NaN             NaN             NaN
             NaN             NaN             NaN
