H3 C2 N1                                
   1.00000000000000     
    30.0000000000000000    0.0000000000000000    0.0000000000000000
     0.0000000000000000   30.0000000000000000    0.0000000000000000
     0.0000000000000000    0.0000000000000000   30.0000000000000000
   H    C    N 
     3     2     1
Direct
  0.4700573967573751  0.4662058235427356  0.5042048359111893
  0.4741839473432877  0.5111179926861307  0.4653939421496849
  0.4690561402328615  0.5224573201003710  0.5236176198084097
  0.4837599856164176  0.4997631710784857  0.4988849597908362
  0.5320179981092864  0.4988325020049281  0.5029627638952496
  0.5707789265053197  0.4977309077060028  0.5059027632655003
 
             NaN             NaN             NaN
             NaN             NaN             NaN
             NaN             NaN             NaN
             NaN             NaN             NaN
             NaN             NaN             NaN
             NaN             NaN             NaN
