H3 C2 N1                                
   1.00000000000000     
    30.0000000000000000    0.0000000000000000    0.0000000000000000
     0.0000000000000000   30.0000000000000000    0.0000000000000000
     0.0000000000000000    0.0000000000000000   30.0000000000000000
   H    C    N 
     3     2     1
Direct
  0.4707124499078735  0.4657307403752009  0.5020349783475656
  0.4766625930448374  0.5120682911787419  0.4648792976694587
  0.4665757273551598  0.5214844726045952  0.5227530452846856
  0.4837561889816774  0.4998409529327354  0.4987061136874156
  0.5316936330485400  0.4990598279504792  0.5053389161793440
  0.5703553179327188  0.4962348923417348  0.5076381911756913
 
             NaN             NaN             NaN
             NaN             NaN             NaN
             NaN             NaN             NaN
             NaN             NaN             NaN
             NaN             NaN             NaN
             NaN             NaN             NaN
