H12 C6 N2 O2                            
   1.00000000000000     
    30.0000000000000000    0.0000000000000000    0.0000000000000000
     0.0000000000000000   30.0000000000000000    0.0000000000000000
     0.0000000000000000    0.0000000000000000   30.0000000000000000
   H    C    N    O 
    12     6     2     2
Direct
  0.3760541770064680  0.5376206863941324  0.4993196190795923
  0.3839554456109630  0.4833488241593876  0.4755298693434222
  0.3760072354877004  0.4897462784133528  0.5340574738485937
  0.4505004699036622  0.4514187191297398  0.4818200298833427
  0.5168761196074113  0.4653767347423814  0.5444239776114221
  0.5588405122714745  0.4119694645732638  0.4943917680605452
  0.5200800074777361  0.4221684681475745  0.4513699100481904
  0.5019612979370734  0.3954819592882179  0.5017847652686070
  0.5137202692723019  0.5509726291032808  0.5213585341329880
  0.6094255724591848  0.5668404509053291  0.5107126484514620
  0.5811721987716340  0.5837446190162604  0.4615732683095599
  0.5666116602353090  0.6082970887656020  0.5140180970780783
  0.3913313532189164  0.5048045245589610  0.5042978472823195
  0.4408024905193923  0.5102997553295290  0.5130289307567087
  0.5137613424698386  0.4667018757260042  0.5077080129668796
  0.5241343273144431  0.4211391848943050  0.4878100640356897
  0.5494217493964698  0.5010921339295608  0.4918037396083308
  0.5768629261842488  0.5773570964456615  0.4974533944242190
  0.4669533062918894  0.4769286387937652  0.4968721349944660
  0.5434319417023930  0.5434192875611081  0.5057641665053378
  0.4555005942346551  0.5426795406223238  0.5343262516628562
  0.5825960404201870  0.4885931197911047  0.4705722304773912
 
             NaN             NaN             NaN
             NaN             NaN             NaN
             NaN             NaN             NaN
             NaN             NaN             NaN
             NaN             NaN             NaN
             NaN             NaN             NaN
             NaN             NaN             NaN
             NaN             NaN             NaN
             NaN             NaN             NaN
             NaN             NaN             NaN
             NaN             NaN             NaN
             NaN             NaN             NaN
             NaN             NaN             NaN
             NaN             NaN             NaN
             NaN             NaN             NaN
             NaN             NaN             NaN
             NaN             NaN             NaN
             NaN             NaN             NaN
             NaN             NaN             NaN
             NaN             NaN             NaN
             NaN             NaN             NaN
             NaN             NaN             NaN
