H12 C6 N2 O2                            
   1.00000000000000     
    30.0000000000000000    0.0000000000000000    0.0000000000000000
     0.0000000000000000   30.0000000000000000    0.0000000000000000
     0.0000000000000000    0.0000000000000000   30.0000000000000000
   H    C    N    O 
    12     6     2     2
Direct
  0.3745682588912708  0.5380454972066333  0.5035377629870430
  0.3801007321317348  0.4860370710957932  0.4745948173222940
  0.3787108750661904  0.4871099027945536  0.5338799823131344
  0.4480078323840379  0.4456674620378578  0.4969396494651120
  0.5195283116041008  0.4648311706628238  0.5435475986511916
  0.5604590844406391  0.4137581866307052  0.4943556216836024
  0.5219024585076437  0.4209820296410585  0.4506868846096163
  0.5044751282632753  0.3949678346934633  0.5018747377510765
  0.5145764300262958  0.5512106961009947  0.5203250160728169
  0.6121939944932230  0.5672765523264635  0.5119425196559243
  0.5791094213378057  0.5839043135150637  0.4654838177444653
  0.5681158935041034  0.6062213298518804  0.5199324692508068
  0.3904068362832966  0.5050458004571187  0.5040263808190572
  0.4404607823224129  0.5119345991654842  0.5066105364072877
  0.5135530103303606  0.4664081491391293  0.5071956878226256
  0.5254153784857812  0.4212405095270432  0.4871277370015949
  0.5470730599993140  0.5019238601725051  0.4894241148191833
  0.5783396338886092  0.5764126487023739  0.5013081616097401
  0.4655141726116049  0.4745967259888609  0.4999655762676847
  0.5465264618550550  0.5413148824386727  0.5115302905255308
  0.4558842070635152  0.5495676241491371  0.5147547084390420
  0.5750789993808610  0.4915462181484956  0.4609510468473316
 
             NaN             NaN             NaN
             NaN             NaN             NaN
             NaN             NaN             NaN
             NaN             NaN             NaN
             NaN             NaN             NaN
             NaN             NaN             NaN
             NaN             NaN             NaN
             NaN             NaN             NaN
             NaN             NaN             NaN
             NaN             NaN             NaN
             NaN             NaN             NaN
             NaN             NaN             NaN
             NaN             NaN             NaN
             NaN             NaN             NaN
             NaN             NaN             NaN
             NaN             NaN             NaN
             NaN             NaN             NaN
             NaN             NaN             NaN
             NaN             NaN             NaN
             NaN             NaN             NaN
             NaN             NaN             NaN
             NaN             NaN             NaN
