H12 C6 N2 O2                            
   1.00000000000000     
    30.0000000000000000    0.0000000000000000    0.0000000000000000
     0.0000000000000000   30.0000000000000000    0.0000000000000000
     0.0000000000000000    0.0000000000000000   30.0000000000000000
   H    C    N    O 
    12     6     2     2
Direct
  0.3780905877672847  0.5403525426550381  0.5072031019711791
  0.3855957122797332  0.4939740875632235  0.4701613280976339
  0.3743855721238702  0.4849544013617270  0.5277630704057379
  0.4531570518509715  0.4565068001118846  0.4717904859752367
  0.5144900884552789  0.4723129426986357  0.5447597442310792
  0.5600684048995126  0.4130034186058165  0.5057041725223202
  0.5227302013129254  0.4141209776585641  0.4603287734046596
  0.5035447514036095  0.3961510793976818  0.5141767440106666
  0.5193505979077677  0.5488720557836417  0.5269106158522990
  0.6105181628749787  0.5666466364125329  0.4979025378612764
  0.5728420614969053  0.5841652533537407  0.4557780855276191
  0.5688134857194708  0.6073111029421798  0.5107213148799957
  0.3919363522422500  0.5066981484049518  0.5039437153243702
  0.4409606703417545  0.5075438647173568  0.5159310442310909
  0.5131684846042326  0.4674735622496719  0.5083264719870354
  0.5253247757029994  0.4197137783765173  0.4964721635762164
  0.5469019581769644  0.5008155998755569  0.4874878274855755
  0.5758526227135031  0.5769400519909487  0.4916336904921424
  0.4670457190439490  0.4767468915632571  0.4951688432446581
  0.5451763670739703  0.5422016815038530  0.5055007417751796
  0.4563212253903712  0.5338142933467234  0.5441333839109337
  0.5737301107475175  0.4896871225080364  0.4582037115980470
 
             NaN             NaN             NaN
             NaN             NaN             NaN
             NaN             NaN             NaN
             NaN             NaN             NaN
             NaN             NaN             NaN
             NaN             NaN             NaN
             NaN             NaN             NaN
             NaN             NaN             NaN
             NaN             NaN             NaN
             NaN             NaN             NaN
             NaN             NaN             NaN
             NaN             NaN             NaN
             NaN             NaN             NaN
             NaN             NaN             NaN
             NaN             NaN             NaN
             NaN             NaN             NaN
             NaN             NaN             NaN
             NaN             NaN             NaN
             NaN             NaN             NaN
             NaN             NaN             NaN
             NaN             NaN             NaN
             NaN             NaN             NaN
