H12 C6 N2 O2                            
   1.00000000000000     
    30.0000000000000000    0.0000000000000000    0.0000000000000000
     0.0000000000000000   30.0000000000000000    0.0000000000000000
     0.0000000000000000    0.0000000000000000   30.0000000000000000
   H    C    N    O 
    12     6     2     2
Direct
  0.3756655696362616  0.5389428937055578  0.5086229963459383
  0.3831029084324474  0.4929275588121323  0.4711109878548549
  0.3757525414926621  0.4831968439344711  0.5292344542152468
  0.4498961415388892  0.4497682023560659  0.4800111580489395
  0.5154328324207310  0.4726573949561131  0.5439257441315596
  0.5614690406691094  0.4165277356237674  0.5021155938902241
  0.5218713674069775  0.4151243768768501  0.4588585019218251
  0.5064024495136175  0.3962975191218604  0.5137091346886006
  0.5172019991408071  0.5501049557754830  0.5231927825034862
  0.6121794331642819  0.5651304251028131  0.5033471593323522
  0.5777121428421980  0.5838317964404519  0.4588431157518701
  0.5704338646290202  0.6061663210251726  0.5139167198770140
  0.3906884510870066  0.5058777973080064  0.5043900166162179
  0.4402869908917464  0.5090830916650363  0.5128183688064009
  0.5123933757730031  0.4679824365488314  0.5075196431655172
  0.5259123199764469  0.4209187802612955  0.4948251665715367
  0.5455794200798655  0.5015484743051694  0.4860310881723040
  0.5782162878408262  0.5760292872355915  0.4946055770532140
  0.4655089304319147  0.4754201258604908  0.4959685741097404
  0.5458669041385136  0.5420708215972589  0.5058961783615367
  0.4567370134456220  0.5401723019666294  0.5349162665453748
  0.5716943231719162  0.4902265474960978  0.4561413345480707
 
             NaN             NaN             NaN
             NaN             NaN             NaN
             NaN             NaN             NaN
             NaN             NaN             NaN
             NaN             NaN             NaN
             NaN             NaN             NaN
             NaN             NaN             NaN
             NaN             NaN             NaN
             NaN             NaN             NaN
             NaN             NaN             NaN
             NaN             NaN             NaN
             NaN             NaN             NaN
             NaN             NaN             NaN
             NaN             NaN             NaN
             NaN             NaN             NaN
             NaN             NaN             NaN
             NaN             NaN             NaN
             NaN             NaN             NaN
             NaN             NaN             NaN
             NaN             NaN             NaN
             NaN             NaN             NaN
             NaN             NaN             NaN
