H12 C6 N2 O2                            
   1.00000000000000     
    30.0000000000000000    0.0000000000000000    0.0000000000000000
     0.0000000000000000   30.0000000000000000    0.0000000000000000
     0.0000000000000000    0.0000000000000000   30.0000000000000000
   H    C    N    O 
    12     6     2     2
Direct
  0.3785345175159762  0.5416613218803920  0.5109586061328983
  0.3862682526740808  0.4963094695092462  0.4727615558746678
  0.3760601352903949  0.4856176062012762  0.5301976730143652
  0.4527130554567131  0.4540594910987538  0.4792100729682812
  0.5164089372735956  0.4780495567057230  0.5480979165974399
  0.5598234925594359  0.4133490200638422  0.5170635828334836
  0.5228749800152167  0.4097078940285911  0.4714786689233584
  0.5029932793680876  0.3985254362601739  0.5269153421390695
  0.5203917081896938  0.5514992733250934  0.5199234343406769
  0.6092087222831568  0.5643710412903772  0.4803640812590819
  0.5665745291232419  0.5791653487180638  0.4420864272230744
  0.5699494777646743  0.6068979862771227  0.4948767080400926
  0.3928582409052034  0.5083353738665115  0.5067550189160182
  0.4421396890062865  0.5098859568649131  0.5176313342827588
  0.5138050469379991  0.4684730542199575  0.5126944829765107
  0.5252783609229333  0.4194758578164893  0.5067273802798703
  0.5466218245764318  0.4985810065374379  0.4862596616493479
  0.5741714268747645  0.5748726216739788  0.4777586497452185
  0.4673137149686783  0.4764798502316805  0.5000155705531379
  0.5453283051023921  0.5420486656410382  0.4985007558282172
  0.4585302445520879  0.5390133275562325  0.5421890865944426
  0.5721497986732994  0.4836178427864619  0.4575309169778973
 
             NaN             NaN             NaN
             NaN             NaN             NaN
             NaN             NaN             NaN
             NaN             NaN             NaN
             NaN             NaN             NaN
             NaN             NaN             NaN
             NaN             NaN             NaN
             NaN             NaN             NaN
             NaN             NaN             NaN
             NaN             NaN             NaN
             NaN             NaN             NaN
             NaN             NaN             NaN
             NaN             NaN             NaN
             NaN             NaN             NaN
             NaN             NaN             NaN
             NaN             NaN             NaN
             NaN             NaN             NaN
             NaN             NaN             NaN
             NaN             NaN             NaN
             NaN             NaN             NaN
             NaN             NaN             NaN
             NaN             NaN             NaN
