H12 C6 N2 O2                            
   1.00000000000000     
    30.0000000000000000    0.0000000000000000    0.0000000000000000
     0.0000000000000000   30.0000000000000000    0.0000000000000000
     0.0000000000000000    0.0000000000000000   30.0000000000000000
   H    C    N    O 
    12     6     2     2
Direct
  0.3769024384979209  0.5399735117795126  0.5135794809090368
  0.3845868255298083  0.4965837793198004  0.4731308276275083
  0.3758158022241948  0.4829289578125929  0.5302383019473910
  0.4513034015588645  0.4514442833520817  0.4804172585326349
  0.5157473110672517  0.4798643115464032  0.5462466098549984
  0.5606211014748411  0.4158724835186514  0.5156532671207340
  0.5228550390450090  0.4105107589364266  0.4709009372857019
  0.5042316119047306  0.3993440298058115  0.5267463795642833
  0.5197654525692856  0.5515997417218245  0.5185902808443282
  0.6110726223737006  0.5632028256508644  0.4858639212462910
  0.5720211829747405  0.5800720327546907  0.4445254483216408
  0.5718760822567901  0.6063225888565683  0.4982114426155691
  0.3915595909551220  0.5071029690451750  0.5075157270355665
  0.4411728286555541  0.5094394252469197  0.5161862407333191
  0.5129191445441476  0.4691789002719962  0.5112149983036129
  0.5256863928517274  0.4205622033877072  0.5059903097331885
  0.5453109561062950  0.4992999453000595  0.4840856383702417
  0.5766420773340323  0.5747105733488693  0.4805057560798648
  0.4660175097985138  0.4753269611505587  0.4993241841938751
  0.5453334170911881  0.5423251900861635  0.4979328749757055
  0.4583965890807736  0.5397899885904818  0.5383992335336303
  0.5701611618545301  0.4845425818297946  0.4547382863185014
 
             NaN             NaN             NaN
             NaN             NaN             NaN
             NaN             NaN             NaN
             NaN             NaN             NaN
             NaN             NaN             NaN
             NaN             NaN             NaN
             NaN             NaN             NaN
             NaN             NaN             NaN
             NaN             NaN             NaN
             NaN             NaN             NaN
             NaN             NaN             NaN
             NaN             NaN             NaN
             NaN             NaN             NaN
             NaN             NaN             NaN
             NaN             NaN             NaN
             NaN             NaN             NaN
             NaN             NaN             NaN
             NaN             NaN             NaN
             NaN             NaN             NaN
             NaN             NaN             NaN
             NaN             NaN             NaN
             NaN             NaN             NaN
