H12 C6 N2 O2                            
   1.00000000000000     
    30.0000000000000000    0.0000000000000000    0.0000000000000000
     0.0000000000000000   30.0000000000000000    0.0000000000000000
     0.0000000000000000    0.0000000000000000   30.0000000000000000
   H    C    N    O 
    12     6     2     2
Direct
  0.3829513597075295  0.5517160896533430  0.5060517440507034
  0.3884868181716817  0.5024339235629237  0.4726749998859200
  0.3769989326482844  0.4980373996859503  0.5306932376937368
  0.4506549843075744  0.4560646924901797  0.4875634369793578
  0.5155621481449707  0.4782241775357624  0.5544342366528074
  0.5530069795600103  0.4087480846514120  0.5226523109038121
  0.5137247934988457  0.4083837247515142  0.4789897934451368
  0.4952656996826578  0.3999792427842405  0.5352403445429481
  0.5182149332921557  0.5520196142032988  0.5077714842517856
  0.6090058087018374  0.5514445458862222  0.4670542842064257
  0.5654395863751865  0.5695884310710414  0.4311293967109617
  0.5767143014640156  0.5997431712187902  0.4812604032260908
  0.3953319922837773  0.5173715924796969  0.5054475179731261
  0.4445200262350348  0.5172641399747899  0.5168763101777470
  0.5127429207240189  0.4684230127018286  0.5190407761942851
  0.5188357752199314  0.4182719735846616  0.5139682166027726
  0.5501244896937781  0.4936005132153069  0.4932431469102705
  0.5755928840016828  0.5663565851166890  0.4663373197873665
  0.4674269693071887  0.4800994149513484  0.5045921034214919
  0.5449687929125433  0.5383948602583697  0.4912114317224171
  0.4625788174737808  0.5487665923738940  0.5369479697167256
  0.5821198641119589  0.4733238085619647  0.4768888146635544
 
             NaN             NaN             NaN
             NaN             NaN             NaN
             NaN             NaN             NaN
             NaN             NaN             NaN
             NaN             NaN             NaN
             NaN             NaN             NaN
             NaN             NaN             NaN
             NaN             NaN             NaN
             NaN             NaN             NaN
             NaN             NaN             NaN
             NaN             NaN             NaN
             NaN             NaN             NaN
             NaN             NaN             NaN
             NaN             NaN             NaN
             NaN             NaN             NaN
             NaN             NaN             NaN
             NaN             NaN             NaN
             NaN             NaN             NaN
             NaN             NaN             NaN
             NaN             NaN             NaN
             NaN             NaN             NaN
             NaN             NaN             NaN
