H12 C6 N2 O2                            
   1.00000000000000     
    30.0000000000000000    0.0000000000000000    0.0000000000000000
     0.0000000000000000   30.0000000000000000    0.0000000000000000
     0.0000000000000000    0.0000000000000000   30.0000000000000000
   H    C    N    O 
    12     6     2     2
Direct
  0.3829650855917940  0.5529155384668110  0.5097322616202544
  0.3858225674537226  0.5048959254735758  0.4742772803731101
  0.3801293368485521  0.4983247696078179  0.5329265731278415
  0.4497411527836003  0.4559378409099505  0.4889502957586903
  0.5127295877239413  0.4773145792430065  0.5557201304901623
  0.5546898721564881  0.4106983295438246  0.5212060793878424
  0.5132000867008086  0.4082644249624200  0.4796853027019117
  0.4981520688713376  0.3986122759430045  0.5364181756355657
  0.5192124383033608  0.5519139212325186  0.5091487561481461
  0.6076512390175265  0.5503741272963898  0.4623612563901875
  0.5603386036180243  0.5650505978544648  0.4293852160230803
  0.5760926772338332  0.5989106986313397  0.4759212220139737
  0.3955348888135374  0.5186824347193676  0.5066201104205613
  0.4454933124554645  0.5187929099721151  0.5145303217736842
  0.5122661294074554  0.4684481887145061  0.5199405587475943
  0.5195867595162547  0.4183271444125616  0.5143115696646243
  0.5510434707944611  0.4934457189975163  0.4960404540297860
  0.5741646183116511  0.5644517722887816  0.4636575234067635
  0.4677804473213042  0.4809857504093501  0.5030671400874290
  0.5466453666648587  0.5382256790552752  0.4934336845487412
  0.4641899434400509  0.5512964632086291  0.5324205986159448
  0.5827567667875208  0.4723849398049780  0.4803368681854160
 
             NaN             NaN             NaN
             NaN             NaN             NaN
             NaN             NaN             NaN
             NaN             NaN             NaN
             NaN             NaN             NaN
             NaN             NaN             NaN
             NaN             NaN             NaN
             NaN             NaN             NaN
             NaN             NaN             NaN
             NaN             NaN             NaN
             NaN             NaN             NaN
             NaN             NaN             NaN
             NaN             NaN             NaN
             NaN             NaN             NaN
             NaN             NaN             NaN
             NaN             NaN             NaN
             NaN             NaN             NaN
             NaN             NaN             NaN
             NaN             NaN             NaN
             NaN             NaN             NaN
             NaN             NaN             NaN
             NaN             NaN             NaN
