H12 C6 N2 O2                            
   1.00000000000000     
    30.0000000000000000    0.0000000000000000    0.0000000000000000
     0.0000000000000000   30.0000000000000000    0.0000000000000000
     0.0000000000000000    0.0000000000000000   30.0000000000000000
   H    C    N    O 
    12     6     2     2
Direct
  0.3751379488726962  0.5413708068617887  0.4961964412630397
  0.3868596568395420  0.4921012894123414  0.4645151704551683
  0.3752636313156391  0.4880774948409344  0.5225114466927721
  0.4491935313276944  0.4523656092145996  0.4863314610619382
  0.5093407353416565  0.4562072153411037  0.5506201472500917
  0.5571275487197470  0.4128795547831505  0.4964910423815850
  0.5229158462686446  0.4320680866109391  0.4519332918791739
  0.4998420710805780  0.3963344325225860  0.4938120481423020
  0.5108025202937762  0.5523385979118595  0.5055858460252933
  0.6106781226005383  0.5549222592438272  0.5004631587890881
  0.5792829155958494  0.5840707402537708  0.4589574900913726
  0.5762276017197292  0.6012059853297435  0.5159423142615480
  0.3914771315219603  0.5087435369257840  0.4968680828125918
  0.4403464592486685  0.5148007157755132  0.5086176276131489
  0.5111553951837455  0.4652318913420642  0.5149234203892257
  0.5234311648210191  0.4237575278972752  0.4876881319020911
  0.5510585784328969  0.4979592787587823  0.5112959338265423
  0.5791525539898755  0.5722024763176243  0.4937062904043384
  0.4662093662455082  0.4784852530392616  0.4997155199223473
  0.5428907634181295  0.5409602163503917  0.5006968554943900
  0.4545014619099526  0.5501573608984003  0.5248798385792410
  0.5887441801001285  0.4822431340057479  0.5175384941305546
 
             NaN             NaN             NaN
             NaN             NaN             NaN
             NaN             NaN             NaN
             NaN             NaN             NaN
             NaN             NaN             NaN
             NaN             NaN             NaN
             NaN             NaN             NaN
             NaN             NaN             NaN
             NaN             NaN             NaN
             NaN             NaN             NaN
             NaN             NaN             NaN
             NaN             NaN             NaN
             NaN             NaN             NaN
             NaN             NaN             NaN
             NaN             NaN             NaN
             NaN             NaN             NaN
             NaN             NaN             NaN
             NaN             NaN             NaN
             NaN             NaN             NaN
             NaN             NaN             NaN
             NaN             NaN             NaN
             NaN             NaN             NaN
