H12 C6 N2 O2                            
   1.00000000000000     
    30.0000000000000000    0.0000000000000000    0.0000000000000000
     0.0000000000000000   30.0000000000000000    0.0000000000000000
     0.0000000000000000    0.0000000000000000   30.0000000000000000
   H    C    N    O 
    12     6     2     2
Direct
  0.3742390229207939  0.5403326855268022  0.4983385642281171
  0.3852049406303774  0.4919703948691643  0.4648179742046457
  0.3799298841288973  0.4865913749527296  0.5238100691715747
  0.4501038249965569  0.4535051762112791  0.4863331991538710
  0.5063357003812290  0.4547004262052524  0.5513036204100715
  0.5589570764985087  0.4158954373322871  0.4935035350564003
  0.5193537179714026  0.4339013113337720  0.4526694056208082
  0.5025959176469822  0.3961389000107037  0.4948229377935032
  0.5107095761467315  0.5532193055901167  0.5119312206675686
  0.6102209181117150  0.5524335908664727  0.4968246229456628
  0.5726279412451980  0.5756167837216108  0.4562200576136777
  0.5804300772793601  0.6024803506670032  0.5089663647208784
  0.3919588008049399  0.5085078832888481  0.4968367178071300
  0.4410729718536491  0.5168767124702620  0.5048019247066957
  0.5109376638914289  0.4655526173416338  0.5164303343409212
  0.5240260594154029  0.4250350542739458  0.4879266914213693
  0.5508902535355557  0.4981313631789610  0.5160115053014190
  0.5785283346600059  0.5700701146364551  0.4921714802724680
  0.4670183011727350  0.4799789704440480  0.4991368488776997
  0.5434238240115764  0.5420249695847680  0.5099497534809765
  0.4546459812411187  0.5542061244976745  0.5165423578609836
  0.5884380927387896  0.4812671192611794  0.5199435778517574
 
             NaN             NaN             NaN
             NaN             NaN             NaN
             NaN             NaN             NaN
             NaN             NaN             NaN
             NaN             NaN             NaN
             NaN             NaN             NaN
             NaN             NaN             NaN
             NaN             NaN             NaN
             NaN             NaN             NaN
             NaN             NaN             NaN
             NaN             NaN             NaN
             NaN             NaN             NaN
             NaN             NaN             NaN
             NaN             NaN             NaN
             NaN             NaN             NaN
             NaN             NaN             NaN
             NaN             NaN             NaN
             NaN             NaN             NaN
             NaN             NaN             NaN
             NaN             NaN             NaN
             NaN             NaN             NaN
             NaN             NaN             NaN
