H12 C6 N2 O2                            
   1.00000000000000     
    30.0000000000000000    0.0000000000000000    0.0000000000000000
     0.0000000000000000   30.0000000000000000    0.0000000000000000
     0.0000000000000000    0.0000000000000000   30.0000000000000000
   H    C    N    O 
    12     6     2     2
Direct
  0.3792845065239208  0.5349935875948909  0.4960527790055601
  0.3784022795824017  0.4820159126871963  0.4691235252314550
  0.3857934241563638  0.4849074381197335  0.5278952764428334
  0.4503093492626564  0.4417571950508752  0.5114254995683493
  0.5211720681775249  0.4253246909082586  0.4998090713566712
  0.5642665819590735  0.4586723384859130  0.4375766289155386
  0.5227978457708971  0.5007249480159285  0.4302504242161163
  0.5095079752261054  0.4436447997679420  0.4200293443773061
  0.5155730305079296  0.5443351106679677  0.5046458984807035
  0.5623571759081576  0.5540418303968599  0.5866266239674556
  0.6045417288599610  0.5513735676436453  0.5451999664099229
  0.5628767391376800  0.5941207658147617  0.5424273734267858
  0.3937645576370888  0.5014830393399029  0.4961695023065107
  0.4436276400137078  0.5052405698516862  0.4887298365328335
  0.5153560153662026  0.4602349739768668  0.4904144741548165
  0.5286631191195751  0.4664151188432081  0.4414460249928754
  0.5468141604773717  0.4863254654396930  0.5220052711898822
  0.5691665672811411  0.5591113217440510  0.5508869794532606
  0.4674656467611642  0.4678161508615014  0.4982817620174669
  0.5411070239096449  0.5310320924858160  0.5232643970617261
  0.4610563681949567  0.5401505213132841  0.4746178003975534
  0.5760997752240247  0.4662798906649653  0.5431191101712186
 
             NaN             NaN             NaN
             NaN             NaN             NaN
             NaN             NaN             NaN
             NaN             NaN             NaN
             NaN             NaN             NaN
             NaN             NaN             NaN
             NaN             NaN             NaN
             NaN             NaN             NaN
             NaN             NaN             NaN
             NaN             NaN             NaN
             NaN             NaN             NaN
             NaN             NaN             NaN
             NaN             NaN             NaN
             NaN             NaN             NaN
             NaN             NaN             NaN
             NaN             NaN             NaN
             NaN             NaN             NaN
             NaN             NaN             NaN
             NaN             NaN             NaN
             NaN             NaN             NaN
             NaN             NaN             NaN
             NaN             NaN             NaN
