H12 C6 N2 O2                            
   1.00000000000000     
    30.0000000000000000    0.0000000000000000    0.0000000000000000
     0.0000000000000000   30.0000000000000000    0.0000000000000000
     0.0000000000000000    0.0000000000000000   30.0000000000000000
   H    C    N    O 
    12     6     2     2
Direct
  0.3784440543491334  0.5350759104063444  0.4958922823715314
  0.3778447456139819  0.4808287940162315  0.4715525689912172
  0.3855463266655779  0.4866877289567615  0.5300370568041656
  0.4495058174659965  0.4412705314721429  0.5096253002826177
  0.5206294056727081  0.4258676749570967  0.5018408026128779
  0.5641389977208244  0.4555967066502482  0.4385550673816910
  0.5233246242510875  0.4977745995781636  0.4286843820200086
  0.5093719947565800  0.4403486925281565  0.4215330300415867
  0.5159903278529230  0.5452147350573693  0.5035010444120763
  0.5642361110087700  0.5557159481492621  0.5846355536620856
  0.6056904756236825  0.5527113372723835  0.5425267241375019
  0.5638910214197846  0.5953060477950527  0.5400103542740302
  0.3932410638368266  0.5017414687604745  0.4974812990665248
  0.4431256009210758  0.5056756830850587  0.4898213671902214
  0.5149663484341790  0.4603590990033521  0.4909994870346584
  0.5286239475959930  0.4640554946030820  0.4418486118534231
  0.5465043163732096  0.4871852573800521  0.5219593517454051
  0.5703725127301207  0.5603782754910885  0.5487122430587339
  0.4669687279908901  0.4680024436569434  0.4983414556863937
  0.5418542619326585  0.5320237728584202  0.5218085952291907
  0.4604950615071809  0.5409884629046964  0.4767116034867809
  0.5752381786747435  0.4671924132104783  0.5439196630022474
 
             NaN             NaN             NaN
             NaN             NaN             NaN
             NaN             NaN             NaN
             NaN             NaN             NaN
             NaN             NaN             NaN
             NaN             NaN             NaN
             NaN             NaN             NaN
             NaN             NaN             NaN
             NaN             NaN             NaN
             NaN             NaN             NaN
             NaN             NaN             NaN
             NaN             NaN             NaN
             NaN             NaN             NaN
             NaN             NaN             NaN
             NaN             NaN             NaN
             NaN             NaN             NaN
             NaN             NaN             NaN
             NaN             NaN             NaN
             NaN             NaN             NaN
             NaN             NaN             NaN
             NaN             NaN             NaN
             NaN             NaN             NaN
