H3 C2 N1                                
   1.00000000000000     
    30.0000000000000000    0.0000000000000000    0.0000000000000000
     0.0000000000000000   30.0000000000000000    0.0000000000000000
     0.0000000000000000    0.0000000000000000   30.0000000000000000
   H    C    N 
     3     2     1
Direct
  0.4745745721430875  0.4659837338862793  0.5064459348894275
  0.4775249608645632  0.5108363544426130  0.4651682854651943
  0.4743403953099346  0.5233993590062099  0.5235660685961039
  0.4863513148375938  0.4995278376597376  0.4986332939244487
  0.5435671150071330  0.4862738421827037  0.4873120400471804
  0.5416890145330798  0.5125747653458195  0.5177075539153662
 
             NaN             NaN             NaN
             NaN             NaN             NaN
             NaN             NaN             NaN
             NaN             NaN             NaN
             NaN             NaN             NaN
             NaN             NaN             NaN
