H3 C2 N1                                
   1.00000000000000     
    30.0000000000000000    0.0000000000000000    0.0000000000000000
     0.0000000000000000   30.0000000000000000    0.0000000000000000
     0.0000000000000000    0.0000000000000000   30.0000000000000000
   H    C    N 
     3     2     1
Direct
  0.4738543408926814  0.4657810597349852  0.5061811406172382
  0.4767041406897976  0.5105966965905718  0.4648350187073502
  0.4752079807107181  0.5231085300017653  0.5232563432777332
  0.4862510104345010  0.4989300414211456  0.4979050692524056
  0.5417546953549640  0.4872019997284702  0.4880857790956189
  0.5442779937950093  0.5129759028526033  0.5185676871554402
 
             NaN             NaN             NaN
             NaN             NaN             NaN
             NaN             NaN             NaN
             NaN             NaN             NaN
             NaN             NaN             NaN
             NaN             NaN             NaN
