H12 C6 N2 O2                            
   1.00000000000000     
    30.0000000000000000    0.0000000000000000    0.0000000000000000
     0.0000000000000000   30.0000000000000000    0.0000000000000000
     0.0000000000000000    0.0000000000000000   30.0000000000000000
   H    C    N    O 
    12     6     2     2
Direct
  0.3799862041570682  0.5449741951202409  0.5156952810355373
  0.3857194720481810  0.4959849032280713  0.4819853959373760
  0.3796444324775732  0.4910843230445793  0.5407489955933146
  0.4520349073146786  0.4510371562203339  0.4963235565546057
  0.5218414517329414  0.4909083151816356  0.5507999633772913
  0.5628373119536709  0.4198946664076323  0.5336361645843066
  0.5218029016327513  0.4049830807804939  0.4942379174008124
  0.5074273769835638  0.4087068836948213  0.5523154814712745
  0.5222628311243291  0.5544068877564037  0.5050505551192074
  0.6037019009935842  0.5531667843793223  0.4490429278806827
  0.5543672763194644  0.5639657991963862  0.4181500731585978
  0.5700936004487710  0.6005995096958716  0.4626001483507271
  0.3944237486578973  0.5114849312177961  0.5140556532445493
  0.4443913369769307  0.5147331786306090  0.5206721218278174
  0.5157846721668848  0.4724872451096220  0.5195711355485705
  0.5273851665679823  0.4235021931188290  0.5253744345188589
  0.5448780589879934  0.4943526845496506  0.4827473284166160
  0.5693811338222488  0.5657225280631824  0.4516465473474883
  0.4681300738155553  0.4775258264345386  0.5100425602147801
  0.5447486124659562  0.5395365516448581  0.4839986785342368
  0.4626450757458840  0.5487534772047882  0.5357965062926450
  0.5665124261609651  0.4721895604830424  0.4555104115710449
 
             NaN             NaN             NaN
             NaN             NaN             NaN
             NaN             NaN             NaN
             NaN             NaN             NaN
             NaN             NaN             NaN
             NaN             NaN             NaN
             NaN             NaN             NaN
             NaN             NaN             NaN
             NaN             NaN             NaN
             NaN             NaN             NaN
             NaN             NaN             NaN
             NaN             NaN             NaN
             NaN             NaN             NaN
             NaN             NaN             NaN
             NaN             NaN             NaN
             NaN             NaN             NaN
             NaN             NaN             NaN
             NaN             NaN             NaN
             NaN             NaN             NaN
             NaN             NaN             NaN
             NaN             NaN             NaN
             NaN             NaN             NaN
