H12 C6 N2 O2                            
   1.00000000000000     
    30.0000000000000000    0.0000000000000000    0.0000000000000000
     0.0000000000000000   30.0000000000000000    0.0000000000000000
     0.0000000000000000    0.0000000000000000   30.0000000000000000
   H    C    N    O 
    12     6     2     2
Direct
  0.3787752302228692  0.5439198062796815  0.5180051083102545
  0.3847151095536815  0.4968082968128035  0.4818518873164516
  0.3793524551809003  0.4887988633868934  0.5403469271733496
  0.4511519001228462  0.4501035923650581  0.4969071927486478
  0.5209761651646914  0.4917554364756311  0.5496275214719922
  0.5630616850359385  0.4211497510286750  0.5328336651699643
  0.5219255033926230  0.4054607407349468  0.4938591983210934
  0.5080009703780293  0.4090319338952729  0.5520760681077010
  0.5231049021585531  0.5545356978851934  0.5053208661222475
  0.6055849857845006  0.5533015030423789  0.4517818154340806
  0.5578531332874833  0.5644509807829305  0.4186534771649413
  0.5715726950683804  0.6006866031796128  0.4640611992337514
  0.3935620923539711  0.5107443503040230  0.5145585209765939
  0.4435882680804042  0.5142645538912111  0.5201845654301570
  0.5150696820319838  0.4727605413341743  0.5187376191033679
  0.5274714717981113  0.4240760592852201  0.5249132002243621
  0.5439647670673006  0.4945083574108090  0.4816245223278883
  0.5712330059975090  0.5659247059199654  0.4527758978098917
  0.4673261024719508  0.4771112179646399  0.5095358898152209
  0.5449855518177624  0.5396548530729912  0.4838243485212956
  0.4620522840593657  0.5484984367611365  0.5347733803956615
  0.5646720305601272  0.4724545623997148  0.4537485909433183
 
             NaN             NaN             NaN
             NaN             NaN             NaN
             NaN             NaN             NaN
             NaN             NaN             NaN
             NaN             NaN             NaN
             NaN             NaN             NaN
             NaN             NaN             NaN
             NaN             NaN             NaN
             NaN             NaN             NaN
             NaN             NaN             NaN
             NaN             NaN             NaN
             NaN             NaN             NaN
             NaN             NaN             NaN
             NaN             NaN             NaN
             NaN             NaN             NaN
             NaN             NaN             NaN
             NaN             NaN             NaN
             NaN             NaN             NaN
             NaN             NaN             NaN
             NaN             NaN             NaN
             NaN             NaN             NaN
             NaN             NaN             NaN
