H3 C2 N1                                
   1.00000000000000     
    30.0000000000000000    0.0000000000000000    0.0000000000000000
     0.0000000000000000   30.0000000000000000    0.0000000000000000
     0.0000000000000000    0.0000000000000000   30.0000000000000000
   H    C    N 
     3     2     1
Direct
  0.4988277022588860  0.4535429190126201  0.5246870668527546
  0.4632326061551723  0.4833776324446986  0.4872691512273776
  0.4787417448659104  0.5077233712104245  0.5394731313130203
  0.4902921034266981  0.4867399407326498  0.5117450637535800
  0.5595409187106692  0.5227004366237662  0.4742422921741031
  0.5281088235202179  0.5063396324240987  0.4913561640515148
 
             NaN             NaN             NaN
             NaN             NaN             NaN
             NaN             NaN             NaN
             NaN             NaN             NaN
             NaN             NaN             NaN
             NaN             NaN             NaN
