H3 C2 N1                                
   1.00000000000000     
    30.0000000000000000    0.0000000000000000    0.0000000000000000
     0.0000000000000000   30.0000000000000000    0.0000000000000000
     0.0000000000000000    0.0000000000000000   30.0000000000000000
   H    C    N 
     3     2     1
Direct
  0.4956919825572637  0.4560447974801164  0.5251404182964585
  0.4641500972091611  0.4844325281727371  0.4832315668718894
  0.4753839384819840  0.5111848026333849  0.5353328120554088
  0.4889822315586980  0.4886565814899899  0.5098402772993551
  0.5620906776263811  0.5215869433882556  0.4771612843933911
  0.5288553308856316  0.5066309111532293  0.4920208019185213
 
             NaN             NaN             NaN
             NaN             NaN             NaN
             NaN             NaN             NaN
             NaN             NaN             NaN
             NaN             NaN             NaN
             NaN             NaN             NaN
