H3 C2 N1                                
   1.00000000000000     
    30.0000000000000000    0.0000000000000000    0.0000000000000000
     0.0000000000000000   30.0000000000000000    0.0000000000000000
     0.0000000000000000    0.0000000000000000   30.0000000000000000
   H    C    N 
     3     2     1
Direct
  0.4752037198759508  0.4665548967307274  0.5068528636329125
  0.4782394986470043  0.5110168606658650  0.4658511086196871
  0.4722968311067756  0.5239497517060911  0.5239932278912180
  0.4862679506785651  0.5006567063836070  0.4999493936377862
  0.5473359645945951  0.4852661647144726  0.4862639176677012
  0.5387034957341845  0.5111514580376976  0.5159226022553860
 
             NaN             NaN             NaN
             NaN             NaN             NaN
             NaN             NaN             NaN
             NaN             NaN             NaN
             NaN             NaN             NaN
             NaN             NaN             NaN
