H3 C2 N1                                
   1.00000000000000     
    30.0000000000000000    0.0000000000000000    0.0000000000000000
     0.0000000000000000   30.0000000000000000    0.0000000000000000
     0.0000000000000000    0.0000000000000000   30.0000000000000000
   H    C    N 
     3     2     1
Direct
  0.4750735084384383  0.4663987291498651  0.5067748839090405
  0.4781027678275891  0.5109229312220590  0.4656541932994889
  0.4728808843307512  0.5238113643607913  0.5238219196833522
  0.4863136672440687  0.5003170566656843  0.4995716954147479
  0.5460916806089061  0.4856257149390779  0.4864119253484747
  0.5395829605664443  0.5115222280984735  0.5165977333751026
 
             NaN             NaN             NaN
             NaN             NaN             NaN
             NaN             NaN             NaN
             NaN             NaN             NaN
             NaN             NaN             NaN
             NaN             NaN             NaN
