H12 C6 N2 O2                            
   1.00000000000000     
    30.0000000000000000    0.0000000000000000    0.0000000000000000
     0.0000000000000000   30.0000000000000000    0.0000000000000000
     0.0000000000000000    0.0000000000000000   30.0000000000000000
   H    C    N    O 
    12     6     2     2
Direct
  0.3836389648909867  0.5503544592812608  0.5140693012036026
  0.3868807700527915  0.4972382835118134  0.4869946797846541
  0.3807304319274140  0.5002589594786976  0.5459030016328509
  0.4518508269723726  0.4516688686502616  0.5064965700351305
  0.5255956282435207  0.4978247209300600  0.5508327595668625
  0.5658201925477483  0.4256461034441429  0.5422496335077622
  0.5233614572496572  0.4046224303239987  0.5074150889595214
  0.5117415046999686  0.4161228135741328  0.5651461476887831
  0.5238698315918804  0.5539392537401722  0.4973256987357030
  0.5973569221198194  0.5409870543987887  0.4321212022534580
  0.5447085698589643  0.5518359885350718  0.4072895744372633
  0.5688154772886930  0.5919946505761735  0.4443461639293975
  0.3964271959573762  0.5162693793004099  0.5168548192849320
  0.4465485404628699  0.5182044026307923  0.5228266228674561
  0.5171062713989883  0.4749126661549784  0.5233994420373910
  0.5299074457369407  0.4273791822378610  0.5353859605650367
  0.5423979741428403  0.4906719940997645  0.4810747433926044
  0.5645686262937052  0.5562508285540076  0.4379042446510160
  0.4688208131862143  0.4790296488932701  0.5171110310009149
  0.5436543060714714  0.5356134047851379  0.4763124321076773
  0.4662758089905067  0.5532551386203435  0.5329540848850656
  0.5598757789481120  0.4642924013790252  0.4546000737921289
 
             NaN             NaN             NaN
             NaN             NaN             NaN
             NaN             NaN             NaN
             NaN             NaN             NaN
             NaN             NaN             NaN
             NaN             NaN             NaN
             NaN             NaN             NaN
             NaN             NaN             NaN
             NaN             NaN             NaN
             NaN             NaN             NaN
             NaN             NaN             NaN
             NaN             NaN             NaN
             NaN             NaN             NaN
             NaN             NaN             NaN
             NaN             NaN             NaN
             NaN             NaN             NaN
             NaN             NaN             NaN
             NaN             NaN             NaN
             NaN             NaN             NaN
             NaN             NaN             NaN
             NaN             NaN             NaN
             NaN             NaN             NaN
