H12 C6 N2 O2                            
   1.00000000000000     
    30.0000000000000000    0.0000000000000000    0.0000000000000000
     0.0000000000000000   30.0000000000000000    0.0000000000000000
     0.0000000000000000    0.0000000000000000   30.0000000000000000
   H    C    N    O 
    12     6     2     2
Direct
  0.3841859049887523  0.5512222497861373  0.5156070843744063
  0.3849833360763687  0.4988510710317863  0.4872565046851838
  0.3799370788957932  0.5009559320360359  0.5463612861231204
  0.4514120685601284  0.4502222856968693  0.5078902379189356
  0.5247555806652464  0.4963712570567045  0.5522387886822090
  0.5665915950551431  0.4258621366568492  0.5428298886782240
  0.5252789519324231  0.4024761817009821  0.5090027807689731
  0.5133644236037999  0.4159341093450793  0.5660689744443260
  0.5245139263142353  0.5564484879083760  0.4964997187127144
  0.5975166886826614  0.5398448126354903  0.4318786421123053
  0.5454713172066311  0.5512860630419936  0.4057489633879390
  0.5697609742356926  0.5921216689384087  0.4414360656523336
  0.3959484957209793  0.5166947518292930  0.5173589314238621
  0.4462858651612117  0.5173555544513663  0.5227688385895995
  0.5168564532107132  0.4745882642923362  0.5236628092260853
  0.5307524299055882  0.4269894922908021  0.5357036070905477
  0.5413779431184327  0.4920092866918866  0.4808619604340456
  0.5649863922765731  0.5561530489297190  0.4365290939948339
  0.4682677136193834  0.4778059023982780  0.5180320142605899
  0.5429656197432419  0.5370421855054046  0.4753862275578322
  0.4666120227227835  0.5521907964329936  0.5319586156665826
  0.5581317571833839  0.4660858137875878  0.4536492979737938
 
             NaN             NaN             NaN
             NaN             NaN             NaN
             NaN             NaN             NaN
             NaN             NaN             NaN
             NaN             NaN             NaN
             NaN             NaN             NaN
             NaN             NaN             NaN
             NaN             NaN             NaN
             NaN             NaN             NaN
             NaN             NaN             NaN
             NaN             NaN             NaN
             NaN             NaN             NaN
             NaN             NaN             NaN
             NaN             NaN             NaN
             NaN             NaN             NaN
             NaN             NaN             NaN
             NaN             NaN             NaN
             NaN             NaN             NaN
             NaN             NaN             NaN
             NaN             NaN             NaN
             NaN             NaN             NaN
             NaN             NaN             NaN
