H3 C2 N1                                
   1.00000000000000     
    30.0000000000000000    0.0000000000000000    0.0000000000000000
     0.0000000000000000   30.0000000000000000    0.0000000000000000
     0.0000000000000000    0.0000000000000000   30.0000000000000000
   H    C    N 
     3     2     1
Direct
  0.4710198243874314  0.4662162766018291  0.5062409419782121
  0.4732829272322330  0.5088807970428377  0.4647887251941246
  0.4686904649221292  0.5234818680469004  0.5223144967066898
  0.4836677505735238  0.4997742201917771  0.4987276506545542
  0.5319681173594588  0.5007121483626846  0.5023620814620736
  0.5707393879178098  0.5014494648337159  0.5052970718702960
 
             NaN             NaN             NaN
             NaN             NaN             NaN
             NaN             NaN             NaN
             NaN             NaN             NaN
             NaN             NaN             NaN
             NaN             NaN             NaN
