H3 C2 N1                                
   1.00000000000000     
    30.0000000000000000    0.0000000000000000    0.0000000000000000
     0.0000000000000000   30.0000000000000000    0.0000000000000000
     0.0000000000000000    0.0000000000000000   30.0000000000000000
   H    C    N 
     3     2     1
Direct
  0.4711471825075977  0.4661185380061211  0.5062886924743687
  0.4731916401778745  0.5087946330334420  0.4648379620761349
  0.4686514424404107  0.5233736613388951  0.5223738107262598
  0.4836673077917191  0.4997204436840241  0.4987573157601370
  0.5319718251387064  0.5008196605212112  0.5023059539851215
  0.5707437814813304  0.5016842060161000  0.5051689740783598
 
             NaN             NaN             NaN
             NaN             NaN             NaN
             NaN             NaN             NaN
             NaN             NaN             NaN
             NaN             NaN             NaN
             NaN             NaN             NaN
