H3 C2 N1                                
   1.00000000000000     
    30.0000000000000000    0.0000000000000000    0.0000000000000000
     0.0000000000000000   30.0000000000000000    0.0000000000000000
     0.0000000000000000    0.0000000000000000   30.0000000000000000
   H    C    N 
     3     2     1
Direct
  0.4699282044789812  0.4666488729602784  0.5023387531550404
  0.4720823032078939  0.5154764257810613  0.4683578409468745
  0.4710922695670948  0.5205071350998005  0.5276633496809504
  0.4837340793118249  0.5004873145344796  0.4996986501632952
  0.5321513193725643  0.4990221388356426  0.5006111352578686
  0.5710168954362016  0.4978725370138940  0.5013268688420935
 
             NaN             NaN             NaN
             NaN             NaN             NaN
             NaN             NaN             NaN
             NaN             NaN             NaN
             NaN             NaN             NaN
             NaN             NaN             NaN
