H3 C2 N1                                
   1.00000000000000     
    30.0000000000000000    0.0000000000000000    0.0000000000000000
     0.0000000000000000   30.0000000000000000    0.0000000000000000
     0.0000000000000000    0.0000000000000000   30.0000000000000000
   H    C    N 
     3     2     1
Direct
  0.4696441012445246  0.4668780215900870  0.5020660522237063
  0.4723992459594413  0.5157553238732047  0.4682162544952195
  0.4710666993205194  0.5206890689652658  0.5275451141262224
  0.4837361717146743  0.5006221847686383  0.4996137557205541
  0.5321515069073008  0.4987710588582427  0.5008231873565857
  0.5710074375783829  0.4972988913028228  0.5017322209250700
 
             NaN             NaN             NaN
             NaN             NaN             NaN
             NaN             NaN             NaN
             NaN             NaN             NaN
             NaN             NaN             NaN
             NaN             NaN             NaN
