H12 C6 N2 O2                            
   1.00000000000000     
    30.0000000000000000    0.0000000000000000    0.0000000000000000
     0.0000000000000000   30.0000000000000000    0.0000000000000000
     0.0000000000000000    0.0000000000000000   30.0000000000000000
   H    C    N    O 
    12     6     2     2
Direct
  0.3734062121298276  0.5389377425901074  0.4952809262660591
  0.3850748439547430  0.4896764396466330  0.4638114986219596
  0.3749458637103975  0.4858740857062145  0.5221069644882653
  0.4470493645095425  0.4493263646482218  0.4917131627003600
  0.5106149375586374  0.4478397660226013  0.5460411869030127
  0.5597072413360670  0.4178436838960977  0.4852340345480322
  0.5245257358382349  0.4435853579123440  0.4445874350179501
  0.5034125901369897  0.3995502988979801  0.4787599487601435
  0.5104117874842307  0.5516514903724823  0.5047341376193434
  0.6105007468480610  0.5547671656941037  0.5114476959329480
  0.5828165807167722  0.5861196716512090  0.4688508922940545
  0.5744452690234246  0.5999856764563897  0.5262097921772697
  0.3902614485351589  0.5065727721107975  0.4959568211698018
  0.4394749718427030  0.5139516940873764  0.5058332957384519
  0.5112913489196771  0.4637418888216543  0.5128316446575190
  0.5255901838978035  0.4287991579609913  0.4781499504942584
  0.5500864505484750  0.4977127418260390  0.5159131375860010
  0.5796068149905385  0.5722897151208017  0.5027120173884884
  0.4649279698677900  0.4765501456252637  0.5012997744800777
  0.5430930493299678  0.5406138739003302  0.5044479692448214
  0.4536067304885201  0.5513861700979352  0.5165559706228828
  0.5867327720328377  0.4819733649497916  0.5268047103171235
 
             NaN             NaN             NaN
             NaN             NaN             NaN
             NaN             NaN             NaN
             NaN             NaN             NaN
             NaN             NaN             NaN
             NaN             NaN             NaN
             NaN             NaN             NaN
             NaN             NaN             NaN
             NaN             NaN             NaN
             NaN             NaN             NaN
             NaN             NaN             NaN
             NaN             NaN             NaN
             NaN             NaN             NaN
             NaN             NaN             NaN
             NaN             NaN             NaN
             NaN             NaN             NaN
             NaN             NaN             NaN
             NaN             NaN             NaN
             NaN             NaN             NaN
             NaN             NaN             NaN
             NaN             NaN             NaN
             NaN             NaN             NaN
