H12 C6 N2 O2                            
   1.00000000000000     
    30.0000000000000000    0.0000000000000000    0.0000000000000000
     0.0000000000000000   30.0000000000000000    0.0000000000000000
     0.0000000000000000    0.0000000000000000   30.0000000000000000
   H    C    N    O 
    12     6     2     2
Direct
  0.3749308689411962  0.5384171525303503  0.4979228784880244
  0.3851251140190625  0.4895448085937460  0.4644725970740429
  0.3810017297295969  0.4846772446537842  0.5236067475484896
  0.4483550745176015  0.4502413188979546  0.4877156763331218
  0.5073330645097900  0.4471025622542572  0.5463692826272291
  0.5622615357302444  0.4266813173109152  0.4828816884476010
  0.5206011181820703  0.4466195087767009  0.4453964233843863
  0.5083210358013293  0.4002681482903915  0.4803428783302656
  0.5081432706550937  0.5526688781091006  0.5123136725887051
  0.6086966048155579  0.5499841110394726  0.5081485319737976
  0.5755084678056560  0.5754198454598796  0.4659722476626906
  0.5783652859424993  0.6003408092877650  0.5205436520780049
  0.3919369886579979  0.5063334307293291  0.4962576072406915
  0.4407855351380605  0.5148380868263528  0.5016962491692168
  0.5103036828139468  0.4642330962861854  0.5140480732433745
  0.5265204152914114  0.4318718758741233  0.4783165574902306
  0.5483692365727859  0.4977226130684322  0.5204794496187131
  0.5780159391765063  0.5689429408179812  0.5019613543956440
  0.4654172083095429  0.4770535812643846  0.5000071200344078
  0.5410324726973412  0.5412961848980679  0.5149039608366252
  0.4549673069149036  0.5532669548715341  0.5081053683293613
  0.5855967175213416  0.4812026193105776  0.5278141204415808
 
             NaN             NaN             NaN
             NaN             NaN             NaN
             NaN             NaN             NaN
             NaN             NaN             NaN
             NaN             NaN             NaN
             NaN             NaN             NaN
             NaN             NaN             NaN
             NaN             NaN             NaN
             NaN             NaN             NaN
             NaN             NaN             NaN
             NaN             NaN             NaN
             NaN             NaN             NaN
             NaN             NaN             NaN
             NaN             NaN             NaN
             NaN             NaN             NaN
             NaN             NaN             NaN
             NaN             NaN             NaN
             NaN             NaN             NaN
             NaN             NaN             NaN
             NaN             NaN             NaN
             NaN             NaN             NaN
             NaN             NaN             NaN
