H12 C6 N2 O2                            
   1.00000000000000     
    30.0000000000000000    0.0000000000000000    0.0000000000000000
     0.0000000000000000   30.0000000000000000    0.0000000000000000
     0.0000000000000000    0.0000000000000000   30.0000000000000000
   H    C    N    O 
    12     6     2     2
Direct
  0.3805293156661780  0.5391249847819503  0.5005511598678928
  0.3753576797237265  0.4829447296951599  0.4824485234953050
  0.3865753373851876  0.4943017297842801  0.5396220125006780
  0.4504429044502641  0.4532953020422841  0.5371646675630913
  0.5200052471636595  0.4316345842998153  0.5288277090575882
  0.5556299917864271  0.4324790271614405  0.4542716903461015
  0.5140371505575168  0.4699248403118291  0.4338834006939180
  0.4989725143168437  0.4148544268775096  0.4507968827846515
  0.5146037230687204  0.5438722522393051  0.4894554352268040
  0.5831834114941330  0.5732227477845511  0.5523819430248355
  0.6077403468352029  0.5628624547488048  0.4995635492902759
  0.5636520805450183  0.6028883698106450  0.5044085980783215
  0.3933998582336685  0.5052693687816814  0.5053193963637648
  0.4426139063402687  0.5045970107404878  0.4938454771775085
  0.5135817237260614  0.4595821128442267  0.5060436602559852
  0.5208541538822208  0.4433516752351219  0.4580900731339538
  0.5498718133643761  0.4938264438869619  0.5193250753982803
  0.5761145719954520  0.5707036859708404  0.5164758841777269
  0.4670104700295985  0.4725859274432661  0.5148176599160499
  0.5427453611356564  0.5367732722373171  0.5077652827974344
  0.4589606337871726  0.5313997064889537  0.4667147401314080
  0.5841165522542434  0.4805049492339866  0.5382259376159819
 
             NaN             NaN             NaN
             NaN             NaN             NaN
             NaN             NaN             NaN
             NaN             NaN             NaN
             NaN             NaN             NaN
             NaN             NaN             NaN
             NaN             NaN             NaN
             NaN             NaN             NaN
             NaN             NaN             NaN
             NaN             NaN             NaN
             NaN             NaN             NaN
             NaN             NaN             NaN
             NaN             NaN             NaN
             NaN             NaN             NaN
             NaN             NaN             NaN
             NaN             NaN             NaN
             NaN             NaN             NaN
             NaN             NaN             NaN
             NaN             NaN             NaN
             NaN             NaN             NaN
             NaN             NaN             NaN
             NaN             NaN             NaN
