H12 C6 N2 O2                            
   1.00000000000000     
    30.0000000000000000    0.0000000000000000    0.0000000000000000
     0.0000000000000000   30.0000000000000000    0.0000000000000000
     0.0000000000000000    0.0000000000000000   30.0000000000000000
   H    C    N    O 
    12     6     2     2
Direct
  0.3779280843097113  0.5379311536820304  0.5004466594330799
  0.3753669587769337  0.4811262716388496  0.4838962389001409
  0.3851103812271840  0.4945934660193206  0.5408438486465176
  0.4486426694494265  0.4489585494312174  0.5305964173410073
  0.5200243544777268  0.4347548349306125  0.5318898168078963
  0.5563268531603829  0.4289976646359919  0.4587435419015019
  0.5153440591982245  0.4645059693860628  0.4339199069326233
  0.4996972120887656  0.4113115412772417  0.4557670871802809
  0.5138015408559359  0.5461199597799495  0.4902832436167635
  0.5860445052487153  0.5751807709331281  0.5484360313080782
  0.6085403808971763  0.5634549139680594  0.4949920269285105
  0.5650611875939425  0.6039480948195138  0.5005825487460357
  0.3920994949421916  0.5048470320256787  0.5062496018410556
  0.4416920065581456  0.5064226535568617  0.4960959656004434
  0.5133463349429898  0.4608042386020362  0.5067538432069544
  0.5215302559945705  0.4403146685946195  0.4607069555685924
  0.5498650071021970  0.4954563805681165  0.5180725155211343
  0.5775379588896464  0.5718851065091373  0.5128234024487018
  0.4662681837229028  0.4728563278478343  0.5142439665779612
  0.5434778823793808  0.5383021684556157  0.5058389576352138
  0.4578436914951245  0.5367485627007736  0.4728619098586798
  0.5844507009297663  0.4814787580502686  0.5359528915113776
 
             NaN             NaN             NaN
             NaN             NaN             NaN
             NaN             NaN             NaN
             NaN             NaN             NaN
             NaN             NaN             NaN
             NaN             NaN             NaN
             NaN             NaN             NaN
             NaN             NaN             NaN
             NaN             NaN             NaN
             NaN             NaN             NaN
             NaN             NaN             NaN
             NaN             NaN             NaN
             NaN             NaN             NaN
             NaN             NaN             NaN
             NaN             NaN             NaN
             NaN             NaN             NaN
             NaN             NaN             NaN
             NaN             NaN             NaN
             NaN             NaN             NaN
             NaN             NaN             NaN
             NaN             NaN             NaN
             NaN             NaN             NaN
