H12 C6 N2 O2                            
   1.00000000000000     
    30.0000000000000000    0.0000000000000000    0.0000000000000000
     0.0000000000000000   30.0000000000000000    0.0000000000000000
     0.0000000000000000    0.0000000000000000   30.0000000000000000
   H    C    N    O 
    12     6     2     2
Direct
  0.3776869764461246  0.5339766173657861  0.4943918740234980
  0.3798356588109000  0.4873359726050314  0.4578570314365770
  0.3812582984554148  0.4786390298840643  0.5165671542535272
  0.4474561620296626  0.4407541785686318  0.5065726774636368
  0.5191502944294565  0.4255633347061843  0.5057473673097712
  0.5684518407390595  0.4591552102914703  0.4471423832537100
  0.5255544603229330  0.4979076039183882  0.4332886192343421
  0.5170419164445600  0.4395454425481400  0.4246952295135013
  0.5138687243466014  0.5444287101754789  0.5066559899693583
  0.5866724273203244  0.5426875424623764  0.5756336573979558
  0.5956693813421429  0.5736086196502730  0.5256979927007203
  0.5522923918188405  0.5900204627524317  0.5631429567658822
  0.3923350245658920  0.5008614357442269  0.4896011711127791
  0.4426662210105032  0.5053749302469617  0.4874937131160630
  0.5143139460317226  0.4600793185741572  0.4945455210776841
  0.5321935251124558  0.4645534549288096  0.4467855177464930
  0.5445626806472530  0.4870766497747646  0.5265094927201326
  0.5699577836058431  0.5612736954820045  0.5489384956105117
  0.4659009886990512  0.4678006333499609  0.4979399384147579
  0.5389073570708971  0.5318089803312157  0.5265246525897833
  0.4607756811444421  0.5410712785425329  0.4766269074027535
  0.5739214045272233  0.4671575759777571  0.5477337210824460
 
             NaN             NaN             NaN
             NaN             NaN             NaN
             NaN             NaN             NaN
             NaN             NaN             NaN
             NaN             NaN             NaN
             NaN             NaN             NaN
             NaN             NaN             NaN
             NaN             NaN             NaN
             NaN             NaN             NaN
             NaN             NaN             NaN
             NaN             NaN             NaN
             NaN             NaN             NaN
             NaN             NaN             NaN
             NaN             NaN             NaN
             NaN             NaN             NaN
             NaN             NaN             NaN
             NaN             NaN             NaN
             NaN             NaN             NaN
             NaN             NaN             NaN
             NaN             NaN             NaN
             NaN             NaN             NaN
             NaN             NaN             NaN
