H12 C6 N2 O2                            
   1.00000000000000     
    30.0000000000000000    0.0000000000000000    0.0000000000000000
     0.0000000000000000   30.0000000000000000    0.0000000000000000
     0.0000000000000000    0.0000000000000000   30.0000000000000000
   H    C    N    O 
    12     6     2     2
Direct
  0.3766838751124320  0.5339148280954009  0.4949484188736765
  0.3790008523788116  0.4864773679867513  0.4591653870786038
  0.3819208771267795  0.4791046543154075  0.5181034127313247
  0.4468708032544255  0.4398127267046879  0.4985432381958660
  0.5182004676133879  0.4257725566295339  0.5057521127202298
  0.5712912695792435  0.4619004018697296  0.4504982799658436
  0.5268361177488620  0.4975300573533058  0.4333072683016532
  0.5224578139949128  0.4388739575691805  0.4252164744483332
  0.5113422049637565  0.5450311722388623  0.5091952535490528
  0.5872123714275004  0.5421585570204062  0.5746513002770662
  0.5946948896597124  0.5697510171445557  0.5221244229050328
  0.5552460101737858  0.5906960052706925  0.5620067484544174
  0.3916792057194226  0.5009577007479059  0.4903506691724916
  0.4420328972544479  0.5061653683555217  0.4877963001470407
  0.5138338956159547  0.4602982942622132  0.4942997496463881
  0.5348933365798650  0.4649536665743341  0.4475547540725870
  0.5426250701012953  0.4871649004481259  0.5273230892745061
  0.5700880486040942  0.5603513897641170  0.5479383955294967
  0.4653951572960112  0.4678905818729757  0.4948663039770007
  0.5365624387923965  0.5318747254058227  0.5283424086602974
  0.4593631727813701  0.5430614019692535  0.4801274811204635
  0.5722180398110922  0.4669694570334569  0.5480034093241515
 
             NaN             NaN             NaN
             NaN             NaN             NaN
             NaN             NaN             NaN
             NaN             NaN             NaN
             NaN             NaN             NaN
             NaN             NaN             NaN
             NaN             NaN             NaN
             NaN             NaN             NaN
             NaN             NaN             NaN
             NaN             NaN             NaN
             NaN             NaN             NaN
             NaN             NaN             NaN
             NaN             NaN             NaN
             NaN             NaN             NaN
             NaN             NaN             NaN
             NaN             NaN             NaN
             NaN             NaN             NaN
             NaN             NaN             NaN
             NaN             NaN             NaN
             NaN             NaN             NaN
             NaN             NaN             NaN
             NaN             NaN             NaN
