H3 C2 N1                                
   1.00000000000000     
    30.0000000000000000    0.0000000000000000    0.0000000000000000
     0.0000000000000000   30.0000000000000000    0.0000000000000000
     0.0000000000000000    0.0000000000000000   30.0000000000000000
   H    C    N 
     3     2     1
Direct
  0.4722195533021242  0.4638698349080824  0.5055804755195087
  0.4718654882887490  0.5095116961875565  0.4650231416484524
  0.4773133937881526  0.5205660154287892  0.5233741663309737
  0.4848347147637423  0.4966257599142228  0.4963746638710845
  0.5339501551532662  0.4949527007007670  0.4940336763859061
  0.5598391535761927  0.5144627986315058  0.5155938737049498
 
             NaN             NaN             NaN
             NaN             NaN             NaN
             NaN             NaN             NaN
             NaN             NaN             NaN
             NaN             NaN             NaN
             NaN             NaN             NaN
