H3 C2 N1                                
   1.00000000000000     
    30.0000000000000000    0.0000000000000000    0.0000000000000000
     0.0000000000000000   30.0000000000000000    0.0000000000000000
     0.0000000000000000    0.0000000000000000   30.0000000000000000
   H    C    N 
     3     2     1
Direct
  0.4721971216108898  0.4638909797364759  0.5054771396443035
  0.4719962350014379  0.5095986108522970  0.4649831017287934
  0.4772967062683867  0.5205577277685776  0.5233642069125354
  0.4848599280576166  0.4966442688777120  0.4963464642240829
  0.5340151466414578  0.4948385544289674  0.4940229056334644
  0.5596573219743957  0.5144586628684964  0.5157861801643504
 
             NaN             NaN             NaN
             NaN             NaN             NaN
             NaN             NaN             NaN
             NaN             NaN             NaN
             NaN             NaN             NaN
             NaN             NaN             NaN
