H3 C2 N1                                
   1.00000000000000     
    30.0000000000000000    0.0000000000000000    0.0000000000000000
     0.0000000000000000   30.0000000000000000    0.0000000000000000
     0.0000000000000000    0.0000000000000000   30.0000000000000000
   H    C    N 
     3     2     1
Direct
  0.4769067540503348  0.4642689012406840  0.5023553601095986
  0.4675172347149090  0.5187505549299118  0.4798253370753670
  0.4752441481550471  0.5117570245657801  0.5387952956235056
  0.4851036276935534  0.4997944011110808  0.5057536527664547
  0.5636498135900230  0.5008657778878811  0.4753424896677674
  0.5315884796787554  0.5045822893049985  0.4979278271886485
 
             NaN             NaN             NaN
             NaN             NaN             NaN
             NaN             NaN             NaN
             NaN             NaN             NaN
             NaN             NaN             NaN
             NaN             NaN             NaN
