H3 C2 N1                                
   1.00000000000000     
    30.0000000000000000    0.0000000000000000    0.0000000000000000
     0.0000000000000000   30.0000000000000000    0.0000000000000000
     0.0000000000000000    0.0000000000000000   30.0000000000000000
   H    C    N 
     3     2     1
Direct
  0.4780461153185086  0.4645045559703193  0.5020676130096651
  0.4687908234094478  0.5189705663381793  0.4795125487156209
  0.4743068806140410  0.5117608934376330  0.5387948347905923
  0.4854200612037123  0.5001358120929631  0.5061470086268850
  0.5610704723793494  0.4991327446871150  0.4735491159904519
  0.5323757079890825  0.5055143744132584  0.4999288310459368
 
             NaN             NaN             NaN
             NaN             NaN             NaN
             NaN             NaN             NaN
             NaN             NaN             NaN
             NaN             NaN             NaN
             NaN             NaN             NaN
