H3 C2 N1                                
   1.00000000000000     
    30.0000000000000000    0.0000000000000000    0.0000000000000000
     0.0000000000000000   30.0000000000000000    0.0000000000000000
     0.0000000000000000    0.0000000000000000   30.0000000000000000
   H    C    N 
     3     2     1
Direct
  0.4713140027847726  0.4686832643946856  0.5083375925131292
  0.4742469169308279  0.5127717711142078  0.4680725195247463
  0.4699867452361576  0.5257115649918914  0.5262861767965350
  0.4839844966294374  0.5023828412942417  0.5017785143337892
  0.5674427994018217  0.4888534427703146  0.4917922496981541
  0.5312634578226468  0.5001194098028375  0.5025438793925702
 
             NaN             NaN             NaN
             NaN             NaN             NaN
             NaN             NaN             NaN
             NaN             NaN             NaN
             NaN             NaN             NaN
             NaN             NaN             NaN
