H3 C2 N1                                
   1.00000000000000     
    30.0000000000000000    0.0000000000000000    0.0000000000000000
     0.0000000000000000   30.0000000000000000    0.0000000000000000
     0.0000000000000000    0.0000000000000000   30.0000000000000000
   H    C    N 
     3     2     1
Direct
  0.4714509671044200  0.4686428505011647  0.5090453702502008
  0.4743504684596649  0.5116158451242300  0.4675845745596360
  0.4692595416060204  0.5261657412827430  0.5253907717453746
  0.4837820738701848  0.5022953573070830  0.5016859197838275
  0.5674253499962066  0.4897161185687359  0.4922845177427122
  0.5310724137175598  0.5006122249616057  0.5028845481984026
 
             NaN             NaN             NaN
             NaN             NaN             NaN
             NaN             NaN             NaN
             NaN             NaN             NaN
             NaN             NaN             NaN
             NaN             NaN             NaN
