H3 C2 N1                                
   1.00000000000000     
    30.0000000000000000    0.0000000000000000    0.0000000000000000
     0.0000000000000000   30.0000000000000000    0.0000000000000000
     0.0000000000000000    0.0000000000000000   30.0000000000000000
   H    C    N 
     3     2     1
Direct
  0.4757077613574734  0.4614494043240550  0.4978027523906822
  0.4659645068493818  0.5171816449444414  0.4748389694534123
  0.4807715600170820  0.5099297678901933  0.5321593676018206
  0.4847670319040316  0.4965659980981734  0.4979954325429183
  0.5328713745125815  0.5002641990531341  0.4865795774921058
  0.5599278230126570  0.5146279337837104  0.5106238625567396
 
             NaN             NaN             NaN
             NaN             NaN             NaN
             NaN             NaN             NaN
             NaN             NaN             NaN
             NaN             NaN             NaN
             NaN             NaN             NaN
