H3 C2 N1                                
   1.00000000000000     
    30.0000000000000000    0.0000000000000000    0.0000000000000000
     0.0000000000000000   30.0000000000000000    0.0000000000000000
     0.0000000000000000    0.0000000000000000   30.0000000000000000
   H    C    N 
     3     2     1
Direct
  0.4758064502393927  0.4616445336046054  0.4981354603754679
  0.4664067205471801  0.5173782645734004  0.4749885955876918
  0.4808727848055069  0.5101944623189316  0.5323930253072255
  0.4849697366448903  0.4966992335116479  0.4982518707526926
  0.5333881491047253  0.4995031685591099  0.4852781248465064
  0.5585662168798724  0.5145992848695921  0.5109528846486602
 
             NaN             NaN             NaN
             NaN             NaN             NaN
             NaN             NaN             NaN
             NaN             NaN             NaN
             NaN             NaN             NaN
             NaN             NaN             NaN
