H3 C2 N1                                
   1.00000000000000     
    30.0000000000000000    0.0000000000000000    0.0000000000000000
     0.0000000000000000   30.0000000000000000    0.0000000000000000
     0.0000000000000000    0.0000000000000000   30.0000000000000000
   H    C    N 
     3     2     1
Direct
  0.4676724547166691  0.4690576861450372  0.4990472503152104
  0.4741678916045365  0.5207306074066742  0.4699703407926171
  0.4730556949275985  0.5199916103413149  0.5296072778606221
  0.4840619181908410  0.5018190958662966  0.4997525721271645
  0.5700792007792357  0.4920351472003232  0.5010953091914736
  0.5309736272171922  0.4963918256035121  0.5005248588681919
 
             NaN             NaN             NaN
             NaN             NaN             NaN
             NaN             NaN             NaN
             NaN             NaN             NaN
             NaN             NaN             NaN
             NaN             NaN             NaN
