H3 C2 N1                                
   1.00000000000000     
    30.0000000000000000    0.0000000000000000    0.0000000000000000
     0.0000000000000000   30.0000000000000000    0.0000000000000000
     0.0000000000000000    0.0000000000000000   30.0000000000000000
   H    C    N 
     3     2     1
Direct
  0.4670617026746284  0.4697078027766576  0.4989410763688488
  0.4747310682324142  0.5214195029620007  0.4701339783336597
  0.4732687521509100  0.5204230906460963  0.5296936331976015
  0.4841643889613584  0.5021193483201964  0.4998684580287838
  0.5698816827104630  0.4906207686466061  0.5005583947954525
  0.5309047601587180  0.4957384242394544  0.5008015599302883
 
             NaN             NaN             NaN
             NaN             NaN             NaN
             NaN             NaN             NaN
             NaN             NaN             NaN
             NaN             NaN             NaN
             NaN             NaN             NaN
