H3 C2 N1                                
   1.00000000000000     
    30.0000000000000000    0.0000000000000000    0.0000000000000000
     0.0000000000000000   30.0000000000000000    0.0000000000000000
     0.0000000000000000    0.0000000000000000   30.0000000000000000
   H    C    N 
     3     2     1
Direct
  0.4805217234458735  0.4617998516953583  0.5191956963991993
  0.4627157857521746  0.5028196897882607  0.4797325433354773
  0.4798971111876825  0.5194833623849464  0.5343571434793476
  0.4861447734504056  0.4958975256421367  0.5070305079713030
  0.5675791839719675  0.5041426210486114  0.4788639902939136
  0.5305632002960041  0.5004053995377934  0.4916795338255058
 
             NaN             NaN             NaN
             NaN             NaN             NaN
             NaN             NaN             NaN
             NaN             NaN             NaN
             NaN             NaN             NaN
             NaN             NaN             NaN
