H3 C2 N1                                
   1.00000000000000     
    30.0000000000000000    0.0000000000000000    0.0000000000000000
     0.0000000000000000   30.0000000000000000    0.0000000000000000
     0.0000000000000000    0.0000000000000000   30.0000000000000000
   H    C    N 
     3     2     1
Direct
  0.4805102452418549  0.4617254122831672  0.5189780052629358
  0.4628368420018516  0.5027285344969685  0.4794330581481328
  0.4795654564003725  0.5193936376956456  0.5342014511538883
  0.4860934955421040  0.4958587683151122  0.5068937197405217
  0.5677186966495690  0.5044506865289416  0.4793654611480352
  0.5306096564369225  0.5005459396173564  0.4918699410575376
 
             NaN             NaN             NaN
             NaN             NaN             NaN
             NaN             NaN             NaN
             NaN             NaN             NaN
             NaN             NaN             NaN
             NaN             NaN             NaN
