H12 C6 N2 O2
1.0
30.000000 0.000000 0.000000
0.000000 30.000000 0.000000
0.000000 0.000000 30.000000
H C N O
12 6 2 2
direct
0.378142 0.529719 0.489994 H
0.382722 0.480419 0.456924 H
0.386052 0.476619 0.515994 H
0.453912 0.438299 0.491504 H
0.526562 0.428759 0.482564 H
0.572642 0.479639 0.436274 H
0.528882 0.519919 0.435474 H
0.521102 0.466999 0.409514 H
0.514092 0.543009 0.514334 H
0.546002 0.536179 0.602064 H
0.595622 0.539619 0.569944 H
0.555492 0.583809 0.567384 H
0.394872 0.497409 0.487084 C
0.444792 0.505109 0.484384 C
0.519022 0.464579 0.481944 C
0.536332 0.484229 0.438074 C
0.544582 0.482789 0.523004 C
0.559862 0.547599 0.570004 C
0.470172 0.467519 0.486204 N
0.538012 0.526409 0.532434 N
0.460962 0.543139 0.480704 O
0.570162 0.458239 0.544204 O
