H12 C6 N2 O2                            
   1.00000000000000     
    30.0000000000000000    0.0000000000000000    0.0000000000000000
     0.0000000000000000   30.0000000000000000    0.0000000000000000
     0.0000000000000000    0.0000000000000000   30.0000000000000000
   H    C    N    O 
    12     6     2     2
Direct
  0.3802294901020784  0.5385415555381069  0.4993337002672568
  0.3759729567438819  0.4828994356205623  0.4791853242814982
  0.3862898320830073  0.4924239712816435  0.5368327098233403
  0.4494929712155831  0.4484252622243819  0.5288673872737579
  0.5192617237406195  0.4276932973323913  0.5190649424385696
  0.5578168140205190  0.4403248701271835  0.4469874721116114
  0.5168030279559530  0.4804669400422636  0.4311323208071917
  0.5014768937485968  0.4234178791700076  0.4384772585723749
  0.5156826239785168  0.5441351051684178  0.4940145235454362
  0.5768719512474026  0.5681983851424555  0.5647742347925913
  0.6086148895514033  0.5598060588251669  0.5155452066947575
  0.5649168253113686  0.6005425672762157  0.5160764690961337
  0.3934076785466128  0.5046848338562745  0.5030252798493514
  0.4428553491146263  0.5051076050134335  0.4925487174423742
  0.5135134835951485  0.4588344689981259  0.5006743830873506
  0.5228336492754457  0.4504135595657492  0.4510948974046407
  0.5486566669793783  0.4908874422809589  0.5208184064298406
  0.5750264527317143  0.5675370091150521  0.5281269898725202
  0.4665665306478507  0.4703315630525474  0.5095103031966476
  0.5428658314849405  0.5348348991198522  0.5127770111283658
  0.4599805708549073  0.5351603746566493  0.4696355610568734
  0.5808653756486296  0.4753345505169596  0.5414963798639242
 
             NaN             NaN             NaN
             NaN             NaN             NaN
             NaN             NaN             NaN
             NaN             NaN             NaN
             NaN             NaN             NaN
             NaN             NaN             NaN
             NaN             NaN             NaN
             NaN             NaN             NaN
             NaN             NaN             NaN
             NaN             NaN             NaN
             NaN             NaN             NaN
             NaN             NaN             NaN
             NaN             NaN             NaN
             NaN             NaN             NaN
             NaN             NaN             NaN
             NaN             NaN             NaN
             NaN             NaN             NaN
             NaN             NaN             NaN
             NaN             NaN             NaN
             NaN             NaN             NaN
             NaN             NaN             NaN
             NaN             NaN             NaN
