H12 C6 N2 O2                            
   1.00000000000000     
    30.0000000000000000    0.0000000000000000    0.0000000000000000
     0.0000000000000000   30.0000000000000000    0.0000000000000000
     0.0000000000000000    0.0000000000000000   30.0000000000000000
   H    C    N    O 
    12     6     2     2
Direct
  0.3784264864998547  0.5381954976037823  0.4994105727841590
  0.3755348916797643  0.4816850094529759  0.4817072583123326
  0.3845362000873386  0.4940753240625668  0.5390104664481715
  0.4477753217212154  0.4456243016322108  0.5235289483534663
  0.5193259296043737  0.4298676700539321  0.5223609039166844
  0.5580963589211068  0.4353620583615240  0.4503573262636559
  0.5181158971027229  0.4743448694440511  0.4297253565508843
  0.5017728336063141  0.4186592579287176  0.4428189203952408
  0.5154679551081879  0.5457672266338875  0.4935021574111737
  0.5800888399044732  0.5711219970049840  0.5612348323384510
  0.6092849727583339  0.5613017142768252  0.5107213003785374
  0.5659134089904487  0.6022604212173012  0.5124041007365226
  0.3922366022123390  0.5048152614944437  0.5047139902265746
  0.4419180111492993  0.5060942781339847  0.4945233537086943
  0.5133961265152229  0.4596246225493929  0.5016188329040329
  0.5232783031576099  0.4465578683192123  0.4530387892331918
  0.5488769017699789  0.4927418406502404  0.5200616230416515
  0.5763400668014473  0.5694666264599871  0.5247174807367340
  0.4659640446100309  0.4705919131709070  0.5095311758788534
  0.5432347621340992  0.5366508646388788  0.5115831224539824
  0.4586451433065321  0.5376583712020951  0.4734686819936302
  0.5817719870676478  0.4775340633981396  0.5399598499544873
 
             NaN             NaN             NaN
             NaN             NaN             NaN
             NaN             NaN             NaN
             NaN             NaN             NaN
             NaN             NaN             NaN
             NaN             NaN             NaN
             NaN             NaN             NaN
             NaN             NaN             NaN
             NaN             NaN             NaN
             NaN             NaN             NaN
             NaN             NaN             NaN
             NaN             NaN             NaN
             NaN             NaN             NaN
             NaN             NaN             NaN
             NaN             NaN             NaN
             NaN             NaN             NaN
             NaN             NaN             NaN
             NaN             NaN             NaN
             NaN             NaN             NaN
             NaN             NaN             NaN
             NaN             NaN             NaN
             NaN             NaN             NaN
