H12 C6 N2 O2                            
   1.00000000000000     
    30.0000000000000000    0.0000000000000000    0.0000000000000000
     0.0000000000000000   30.0000000000000000    0.0000000000000000
     0.0000000000000000    0.0000000000000000   30.0000000000000000
   H    C    N    O 
    12     6     2     2
Direct
  0.3745642579261868  0.5353950967943634  0.4965859227689002
  0.3798060950486580  0.4876521790219058  0.4617494147777097
  0.3782201149267967  0.4809011951693413  0.5207193479968368
  0.4444257648684590  0.4432147435749613  0.5088295317493519
  0.5150626908975491  0.4298608748685553  0.5234675320903754
  0.5647549154291135  0.4429433423427972  0.4578138884993077
  0.5240661250335257  0.4793490036042327  0.4341060333177900
  0.5118164399929054  0.4214455563036656  0.4415865754115094
  0.5120008509845767  0.5469073523418736  0.5049219792898865
  0.6043167060805841  0.5487227282059227  0.5450285944902096
  0.5891338438152621  0.5823272138447086  0.4981771160093591
  0.5660400767393354  0.5941695168239168  0.5518043513138000
  0.3901974023409117  0.5025216394192589  0.4936510187786514
  0.4404888104020443  0.5083322514047759  0.4940766942479348
  0.5119532786646409  0.4603801192531372  0.5034393707317348
  0.5289242499938771  0.4504468743242378  0.4560694911809053
  0.5464240969272595  0.4919142060951070  0.5254216245989435
  0.5769440710589538  0.5672708382243943  0.5294171937568732
  0.4637512224256115  0.4707503167450565  0.5046574400842423
  0.5410833412496038  0.5362517077258366  0.5201497322825466
  0.4576607717030646  0.5450085250579108  0.4852685767458764
  0.5794699197959784  0.4740072398372420  0.5427027003111258
 
             NaN             NaN             NaN
             NaN             NaN             NaN
             NaN             NaN             NaN
             NaN             NaN             NaN
             NaN             NaN             NaN
             NaN             NaN             NaN
             NaN             NaN             NaN
             NaN             NaN             NaN
             NaN             NaN             NaN
             NaN             NaN             NaN
             NaN             NaN             NaN
             NaN             NaN             NaN
             NaN             NaN             NaN
             NaN             NaN             NaN
             NaN             NaN             NaN
             NaN             NaN             NaN
             NaN             NaN             NaN
             NaN             NaN             NaN
             NaN             NaN             NaN
             NaN             NaN             NaN
             NaN             NaN             NaN
             NaN             NaN             NaN
