H12 C6 N2 O2                            
   1.00000000000000     
    30.0000000000000000    0.0000000000000000    0.0000000000000000
     0.0000000000000000   30.0000000000000000    0.0000000000000000
     0.0000000000000000    0.0000000000000000   30.0000000000000000
   H    C    N    O 
    12     6     2     2
Direct
  0.3745110060495427  0.5356518322623015  0.4975237980281441
  0.3801714301856389  0.4875380968035294  0.4629466781992930
  0.3805431141612503  0.4816556554221419  0.5219244283118786
  0.4441552739027199  0.4439646304951467  0.4964064031912536
  0.5126244005584391  0.4287385196552704  0.5227255648430794
  0.5683496748676088  0.4484291344621867  0.4598886705881129
  0.5246673923856749  0.4797385397028222  0.4346115843374068
  0.5194590607931048  0.4207721626753592  0.4413618971424605
  0.5078570600215579  0.5459935698693814  0.5104171659873734
  0.6025663226489556  0.5458161125474700  0.5430220994206925
  0.5854144783447414  0.5762406381546084  0.4950493091108383
  0.5689170596596367  0.5952516119239561  0.5487747401233211
  0.3906974516081643  0.5032725299145970  0.4942618344448019
  0.4405658647409690  0.5100141921417501  0.4946429473988694
  0.5116580397359307  0.4598532544404580  0.5030091689511988
  0.5320409066659622  0.4515784137523576  0.4567294729648012
  0.5445447849790477  0.4913164315709379  0.5276565605972043
  0.5754091223257993  0.5653938991901963  0.5287276882574364
  0.4636934136745128  0.4713374332083893  0.5006110959067585
  0.5373660814173022  0.5357450739893497  0.5257041904660306
  0.4570734402709012  0.5478683056197139  0.4909447045471341
  0.5787827476992837  0.4736629500504900  0.5427248186505473
 
             NaN             NaN             NaN
             NaN             NaN             NaN
             NaN             NaN             NaN
             NaN             NaN             NaN
             NaN             NaN             NaN
             NaN             NaN             NaN
             NaN             NaN             NaN
             NaN             NaN             NaN
             NaN             NaN             NaN
             NaN             NaN             NaN
             NaN             NaN             NaN
             NaN             NaN             NaN
             NaN             NaN             NaN
             NaN             NaN             NaN
             NaN             NaN             NaN
             NaN             NaN             NaN
             NaN             NaN             NaN
             NaN             NaN             NaN
             NaN             NaN             NaN
             NaN             NaN             NaN
             NaN             NaN             NaN
             NaN             NaN             NaN
