H12 C6 N2 O2                            
   1.00000000000000     
    30.0000000000000000    0.0000000000000000    0.0000000000000000
     0.0000000000000000   30.0000000000000000    0.0000000000000000
     0.0000000000000000    0.0000000000000000   30.0000000000000000
   H    C    N    O 
    12     6     2     2
Direct
  0.3731626632786449  0.5337884726869847  0.4999002621506818
  0.3815264606660900  0.4782300543544277  0.4802135255189851
  0.3814859183918506  0.4891774085114539  0.5385465669600630
  0.4487260981545851  0.4484495283408301  0.5199424399490922
  0.5233348814945070  0.4512439760522352  0.5440425658351284
  0.5556233385092086  0.4156019121229047  0.4772385872046206
  0.5124025977955514  0.4382727974691608  0.4430836926904603
  0.4991543182496543  0.3985515275187805  0.4854007132300102
  0.5096441942607185  0.5528829711783537  0.5024625205771707
  0.6047018440395376  0.5709952655374362  0.5242795304147504
  0.5929558321056002  0.5749332048590570  0.4664038105468756
  0.5635559470673941  0.6097998908862442  0.5049846647123791
  0.3912059912839431  0.5026322491162106  0.5058452728039651
  0.4409194210161738  0.5122172388677632  0.5035582985862397
  0.5151073538062040  0.4647720540455891  0.5107643384676606
  0.5208674047324127  0.4269008181148680  0.4768825264939178
  0.5525207008269798  0.4999115899370014  0.5040379655625505
  0.5779266702775857  0.5765544195647992  0.4998879671001235
  0.4669655910435661  0.4762826855622214  0.5131821228709387
  0.5428776851649131  0.5436368748992830  0.5053140423906448
  0.4543900740471681  0.5501667395913957  0.4937173016079673
  0.5909452184305993  0.4849988967140854  0.5003131122222662
 
             NaN             NaN             NaN
             NaN             NaN             NaN
             NaN             NaN             NaN
             NaN             NaN             NaN
             NaN             NaN             NaN
             NaN             NaN             NaN
             NaN             NaN             NaN
             NaN             NaN             NaN
             NaN             NaN             NaN
             NaN             NaN             NaN
             NaN             NaN             NaN
             NaN             NaN             NaN
             NaN             NaN             NaN
             NaN             NaN             NaN
             NaN             NaN             NaN
             NaN             NaN             NaN
             NaN             NaN             NaN
             NaN             NaN             NaN
             NaN             NaN             NaN
             NaN             NaN             NaN
             NaN             NaN             NaN
             NaN             NaN             NaN
