H12 C6 N2 O2                            
   1.00000000000000     
    30.0000000000000000    0.0000000000000000    0.0000000000000000
     0.0000000000000000   30.0000000000000000    0.0000000000000000
     0.0000000000000000    0.0000000000000000   30.0000000000000000
   H    C    N    O 
    12     6     2     2
Direct
  0.3750605823000405  0.5355179596950823  0.4974008532678222
  0.3804154340723049  0.4792370742666488  0.4794298232285144
  0.3788112590272276  0.4916981250971931  0.5373028132025677
  0.4493980756773529  0.4478725771506065  0.5219962645946998
  0.5231156522330189  0.4486208807690041  0.5439906965666033
  0.5561571027370852  0.4155373705629886  0.4776381421889304
  0.5146006978535115  0.4387760968529020  0.4424488630165913
  0.4992215945384826  0.3986742586126726  0.4835839868861658
  0.5107818323514278  0.5527027736283222  0.5079604855581716
  0.6051494629543119  0.5759063308300107  0.5237759707791939
  0.5915709876574075  0.5722578462021589  0.4662113370846411
  0.5611152965567818  0.6091893192966841  0.5013733702958164
  0.3909256699411400  0.5036556782812452  0.5049205190733113
  0.4411418835763282  0.5116827449273325  0.5039597937405083
  0.5151642311937007  0.4638408670631592  0.5112251375088180
  0.5214544965926242  0.4269012459978690  0.4763960492548275
  0.5524681398963929  0.4991700175239689  0.5049064086505591
  0.5773306193448459  0.5765396302710757  0.4998475982178958
  0.4670390017793673  0.4757724797484886  0.5144361864812588
  0.5437976691880939  0.5430529768338678  0.5099667940298267
  0.4552290487722785  0.5494700655592821  0.4943595776217660
  0.5900511536245286  0.4839248606482429  0.4968713505490446
 
             NaN             NaN             NaN
             NaN             NaN             NaN
             NaN             NaN             NaN
             NaN             NaN             NaN
             NaN             NaN             NaN
             NaN             NaN             NaN
             NaN             NaN             NaN
             NaN             NaN             NaN
             NaN             NaN             NaN
             NaN             NaN             NaN
             NaN             NaN             NaN
             NaN             NaN             NaN
             NaN             NaN             NaN
             NaN             NaN             NaN
             NaN             NaN             NaN
             NaN             NaN             NaN
             NaN             NaN             NaN
             NaN             NaN             NaN
             NaN             NaN             NaN
             NaN             NaN             NaN
             NaN             NaN             NaN
             NaN             NaN             NaN
