H12 C6 N2 O2                            
   1.00000000000000     
    30.0000000000000000    0.0000000000000000    0.0000000000000000
     0.0000000000000000   30.0000000000000000    0.0000000000000000
     0.0000000000000000    0.0000000000000000   30.0000000000000000
   H    C    N    O 
    12     6     2     2
Direct
  0.3762782410240300  0.5349301160081648  0.4958437826525685
  0.3792221097087656  0.4875840090231353  0.4602672270442759
  0.3796849418064748  0.4800597866708070  0.5191534416854293
  0.4455533024123300  0.4418088148844579  0.5086762594374217
  0.5167994095280821  0.4267686017018492  0.5140810728089872
  0.5666369242446635  0.4518801290191845  0.4518873867100784
  0.5245866782947428  0.4897119322045191  0.4334720598515917
  0.5147687822759635  0.4308927050448512  0.4319752163295852
  0.5129350817644062  0.5452213342022394  0.5057289726980712
  0.5981679497629505  0.5456116809657177  0.5591577265129282
  0.5914083485684511  0.5794286402803398  0.5106085166827451
  0.5595795276536045  0.5913246542685745  0.5595599723072147
  0.3911315362662842  0.5017914675600561  0.4919381722777675
  0.4415002282443081  0.5064493285834083  0.4904417335429387
  0.5128363455784364  0.4598618886780049  0.4989239622679318
  0.5305167902172205  0.4580570081848447  0.4508744439555223
  0.5451606435205765  0.4891570572508049  0.5266157436460164
  0.5739238412630279  0.5644076031779822  0.5392596344556270
  0.4645471763445447  0.4689220448671784  0.5015213176580895
  0.5397466150807096  0.5338122445661214  0.5240544711945355
  0.4594995413532314  0.5421952612892944  0.4795779980524645
  0.5763690668168153  0.4703264435492626  0.5461255967903977
 
             NaN             NaN             NaN
             NaN             NaN             NaN
             NaN             NaN             NaN
             NaN             NaN             NaN
             NaN             NaN             NaN
             NaN             NaN             NaN
             NaN             NaN             NaN
             NaN             NaN             NaN
             NaN             NaN             NaN
             NaN             NaN             NaN
             NaN             NaN             NaN
             NaN             NaN             NaN
             NaN             NaN             NaN
             NaN             NaN             NaN
             NaN             NaN             NaN
             NaN             NaN             NaN
             NaN             NaN             NaN
             NaN             NaN             NaN
             NaN             NaN             NaN
             NaN             NaN             NaN
             NaN             NaN             NaN
             NaN             NaN             NaN
