H12 C6 N2 O2                            
   1.00000000000000     
    30.0000000000000000    0.0000000000000000    0.0000000000000000
     0.0000000000000000   30.0000000000000000    0.0000000000000000
     0.0000000000000000    0.0000000000000000   30.0000000000000000
   H    C    N    O 
    12     6     2     2
Direct
  0.3758791948948133  0.5349122926070641  0.4965633597932488
  0.3800136660204327  0.4870202760090374  0.4615066982632828
  0.3813436279221413  0.4805316541352475  0.5204287058792887
  0.4446610998568620  0.4419739932046775  0.4981345984459986
  0.5153215191744801  0.4263174389442430  0.5137148656213751
  0.5696285592558799  0.4553711997398814  0.4542592500669680
  0.5257352549648650  0.4895617621555223  0.4335426627142389
  0.5209412517280090  0.4302218129187335  0.4320305702793387
  0.5089342593268549  0.5444114526962839  0.5092765321807221
  0.5970791121866599  0.5434399162887505  0.5572077358436198
  0.5890096296131039  0.5745912152182485  0.5073290738214787
  0.5623305914661620  0.5924392852553523  0.5574829206744598
  0.3914622558317943  0.5022225419199549  0.4927753922072551
  0.4414183338062171  0.5080771779209038  0.4914511687983846
  0.5126976022075149  0.4596706353231523  0.4984852133786218
  0.5332272898603889  0.4586688231475339  0.4515749630910427
  0.5433671177408705  0.4889311101586173  0.5281499044323039
  0.5728296938394291  0.5630987334753413  0.5383242610959826
  0.4643654872187489  0.4695405524101040  0.4984138168203920
  0.5361835210504551  0.5334474633997429  0.5277175466522850
  0.4587338943483800  0.5452239705119307  0.4850990139142797
  0.5756619242930093  0.4705777297416406  0.5462873472409406
 
             NaN             NaN             NaN
             NaN             NaN             NaN
             NaN             NaN             NaN
             NaN             NaN             NaN
             NaN             NaN             NaN
             NaN             NaN             NaN
             NaN             NaN             NaN
             NaN             NaN             NaN
             NaN             NaN             NaN
             NaN             NaN             NaN
             NaN             NaN             NaN
             NaN             NaN             NaN
             NaN             NaN             NaN
             NaN             NaN             NaN
             NaN             NaN             NaN
             NaN             NaN             NaN
             NaN             NaN             NaN
             NaN             NaN             NaN
             NaN             NaN             NaN
             NaN             NaN             NaN
             NaN             NaN             NaN
             NaN             NaN             NaN
