H12 C6 N2 O2                            
   1.00000000000000     
    30.0000000000000000    0.0000000000000000    0.0000000000000000
     0.0000000000000000   30.0000000000000000    0.0000000000000000
     0.0000000000000000    0.0000000000000000   30.0000000000000000
   H    C    N    O 
    12     6     2     2
Direct
  0.3733104609634239  0.5361711627575173  0.4961014476483414
  0.3812517814572154  0.4879082695596903  0.4623830575730047
  0.3767483699220153  0.4821780548129847  0.5213107220665343
  0.4441076774042448  0.4445824349334898  0.5055657901308420
  0.5135911122603649  0.4344420747916479  0.5324496512664328
  0.5631576782662080  0.4338722524283887  0.4656617043725572
  0.5241001459364950  0.4678375154130946  0.4361231340936781
  0.5091447810039206  0.4126433901276511  0.4529754819984702
  0.5113184603602176  0.5488818816844654  0.5041535807054722
  0.6081215427040702  0.5510254033345319  0.5322263595755939
  0.5871845190168291  0.5843976546623708  0.4873907527745838
  0.5709225802824190  0.5964396703352393  0.5434161446444924
  0.3896569736864249  0.5035694813003573  0.4944868798087081
  0.4397144564559891  0.5105347307538035  0.4978099113414668
  0.5114424721918991  0.4612952796959608  0.5075497162209160
  0.5277644883354583  0.4427446851800466  0.4625685132985023
  0.5475235507662345  0.4945749532264135  0.5236059474242649
  0.5790205064880627  0.5694534811921360  0.5199434524556330
  0.4633335998290135  0.4725592514151272  0.5057520407687847
  0.5423894971665427  0.5383463840747080  0.5151160116965287
  0.4558228975378790  0.5484991542425834  0.4934454474877424
  0.5816925928342854  0.4774587142455518  0.5394848798522563
 
             NaN             NaN             NaN
             NaN             NaN             NaN
             NaN             NaN             NaN
             NaN             NaN             NaN
             NaN             NaN             NaN
             NaN             NaN             NaN
             NaN             NaN             NaN
             NaN             NaN             NaN
             NaN             NaN             NaN
             NaN             NaN             NaN
             NaN             NaN             NaN
             NaN             NaN             NaN
             NaN             NaN             NaN
             NaN             NaN             NaN
             NaN             NaN             NaN
             NaN             NaN             NaN
             NaN             NaN             NaN
             NaN             NaN             NaN
             NaN             NaN             NaN
             NaN             NaN             NaN
             NaN             NaN             NaN
             NaN             NaN             NaN
