H12 C6 N2 O2                            
   1.00000000000000     
    30.0000000000000000    0.0000000000000000    0.0000000000000000
     0.0000000000000000   30.0000000000000000    0.0000000000000000
     0.0000000000000000    0.0000000000000000   30.0000000000000000
   H    C    N    O 
    12     6     2     2
Direct
  0.3735593297103324  0.5364850880366552  0.4974357123280002
  0.3808151364821096  0.4880774949248168  0.4635139598892446
  0.3797511489784772  0.4829148005422353  0.5224764354276081
  0.4447625241869509  0.4461325347528139  0.4943501250622852
  0.5103170187187346  0.4328401324449331  0.5318602720134060
  0.5667626668733922  0.4409048459669481  0.4663230852762031
  0.5233874086765348  0.4689800100079788  0.4369528716739747
  0.5170581859491966  0.4117807642579127  0.4527401578764139
  0.5076434364260702  0.5480387235010108  0.5107437925661721
  0.6059753013252909  0.5474492570707453  0.5300781764519275
  0.5824578983279042  0.5774789225907847  0.4845928967712270
  0.5742245723398905  0.5976231945987334  0.5396134783749260
  0.3902927014884737  0.5043836629188894  0.4948748519304679
  0.4400678431522631  0.5119644676516035  0.4973678693554090
  0.5109873405919882  0.4606575204426003  0.5074826067956317
  0.5305693950399900  0.4443265592364937  0.4630769663368562
  0.5458937271767594  0.4938364157379765  0.5264032523633465
  0.5772974218187252  0.5672346928091999  0.5195096712226230
  0.4635634716797996  0.4733141300254851  0.5019070011223509
  0.5388686213191439  0.5380593897731742  0.5223863265491131
  0.4556979313118006  0.5503598788250030  0.4967525032456949
  0.5813367181815147  0.4766301832534804  0.5391005381123878
 
             NaN             NaN             NaN
             NaN             NaN             NaN
             NaN             NaN             NaN
             NaN             NaN             NaN
             NaN             NaN             NaN
             NaN             NaN             NaN
             NaN             NaN             NaN
             NaN             NaN             NaN
             NaN             NaN             NaN
             NaN             NaN             NaN
             NaN             NaN             NaN
             NaN             NaN             NaN
             NaN             NaN             NaN
             NaN             NaN             NaN
             NaN             NaN             NaN
             NaN             NaN             NaN
             NaN             NaN             NaN
             NaN             NaN             NaN
             NaN             NaN             NaN
             NaN             NaN             NaN
             NaN             NaN             NaN
             NaN             NaN             NaN
