H3 C2 N1                                
   1.00000000000000     
    30.0000000000000000    0.0000000000000000    0.0000000000000000
     0.0000000000000000   30.0000000000000000    0.0000000000000000
     0.0000000000000000    0.0000000000000000   30.0000000000000000
   H    C    N 
     3     2     1
Direct
  0.4713946435879668  0.4680514313509303  0.5092512309984843
  0.4710722838091969  0.5127641562257872  0.4695752153619666
  0.4732534116656130  0.5247014601852824  0.5280422153076023
  0.4841840684067134  0.5016030294237656  0.5019227914339827
  0.5688734240304545  0.4927645738715080  0.4913400043063373
  0.5312484357538256  0.5000972389193452  0.4998532681887606
 
             NaN             NaN             NaN
             NaN             NaN             NaN
             NaN             NaN             NaN
             NaN             NaN             NaN
             NaN             NaN             NaN
             NaN             NaN             NaN
