H3 C2 N1                                
   1.00000000000000     
    30.0000000000000000    0.0000000000000000    0.0000000000000000
     0.0000000000000000   30.0000000000000000    0.0000000000000000
     0.0000000000000000    0.0000000000000000   30.0000000000000000
   H    C    N 
     3     2     1
Direct
  0.4756610199801444  0.4676697792241892  0.5082694945228418
  0.4754613061493950  0.5121602844284955  0.4689845116374515
  0.4692433041249948  0.5241720028341721  0.5274600257230655
  0.4850267515623847  0.5026480698813333  0.5029964616801517
  0.5615875010697359  0.4875971190954598  0.4859368307830832
  0.5330136553181397  0.5057940685186070  0.5062967678736193
 
             NaN             NaN             NaN
             NaN             NaN             NaN
             NaN             NaN             NaN
             NaN             NaN             NaN
             NaN             NaN             NaN
             NaN             NaN             NaN
