H12 C6 N2 O2                            
   1.00000000000000     
    30.0000000000000000    0.0000000000000000    0.0000000000000000
     0.0000000000000000   30.0000000000000000    0.0000000000000000
     0.0000000000000000    0.0000000000000000   30.0000000000000000
   H    C    N    O 
    12     6     2     2
Direct
  0.3846560390001430  0.5532791426203341  0.5088845632495675
  0.3883493321016867  0.5028749770786075  0.4769845869061278
  0.3780541535589110  0.5005460396953071  0.5353535540582796
  0.4502831586658107  0.4550821905872944  0.4924717008856597
  0.5193347908103660  0.4850281231574903  0.5533844614981025
  0.5553787958370097  0.4120197895545899  0.5307928939893171
  0.5143838689218228  0.4046226377838877  0.4893768695103074
  0.4984841531605825  0.4046342681347223  0.5470906539402127
  0.5213740887829336  0.5519583510984845  0.5061042617909959
  0.6062364666321025  0.5483272710707181  0.4545116191444044
  0.5587319118910999  0.5644943150085853  0.4229729965698565
  0.5756912734020839  0.5974050430943076  0.4697268189001845
  0.3962449770447534  0.5186563354924326  0.5091203693149267
  0.4457189839461578  0.5179154064687008  0.5191494532501044
  0.5138890162924966  0.4699515710813356  0.5202705911341198
  0.5207092118306976  0.4197534476740141  0.5221833915257145
  0.5475688033515476  0.4919585477593134  0.4875835749683620
  0.5729053312794994  0.5632700876309147  0.4568821490671132
  0.4675129107389005  0.4796945997181516  0.5081626873095810
  0.5455354574600062  0.5370769011854373  0.4869004430105310
  0.4651736582669285  0.5499341882570392  0.5370118244262689
  0.5739283918460567  0.4696850138597237  0.4650290961484344
 
             NaN             NaN             NaN
             NaN             NaN             NaN
             NaN             NaN             NaN
             NaN             NaN             NaN
             NaN             NaN             NaN
             NaN             NaN             NaN
             NaN             NaN             NaN
             NaN             NaN             NaN
             NaN             NaN             NaN
             NaN             NaN             NaN
             NaN             NaN             NaN
             NaN             NaN             NaN
             NaN             NaN             NaN
             NaN             NaN             NaN
             NaN             NaN             NaN
             NaN             NaN             NaN
             NaN             NaN             NaN
             NaN             NaN             NaN
             NaN             NaN             NaN
             NaN             NaN             NaN
             NaN             NaN             NaN
             NaN             NaN             NaN
