H12 C6 N2 O2                            
   1.00000000000000     
    30.0000000000000000    0.0000000000000000    0.0000000000000000
     0.0000000000000000   30.0000000000000000    0.0000000000000000
     0.0000000000000000    0.0000000000000000   30.0000000000000000
   H    C    N    O 
    12     6     2     2
Direct
  0.3842140306470551  0.5540239726633122  0.5117252790808617
  0.3858721681395106  0.5048710923619426  0.4778168266473338
  0.3798931803517543  0.5002457585929282  0.5365968341204832
  0.4497342287922417  0.4545214413417502  0.4942363640636040
  0.5174678920172835  0.4845027306605455  0.5552608286419272
  0.5571683095538441  0.4136584255860067  0.5295755394404852
  0.5147202857646545  0.4050424149945070  0.4902374792228860
  0.5016262721554559  0.4037425837038703  0.5485993232187077
  0.5221701768323481  0.5526047778111608  0.5062416542712441
  0.6046996245485415  0.5467242606166828  0.4506281626175350
  0.5550353554767071  0.5607622926260138  0.4217429912979180
  0.5753090407030864  0.5965238285225601  0.4648872633974515
  0.3960144674749441  0.5194753215164614  0.5098282796600010
  0.4460085974303791  0.5187685672709049  0.5173824751716880
  0.5137342586069459  0.4702408808119909  0.5215117279998972
  0.5218139624705133  0.4201026665069634  0.5228349745843028
  0.5482523106681749  0.4923086202242339  0.4898273363766246
  0.5716010381638086  0.5616736207660982  0.4545107376275268
  0.4676477114060714  0.4799444389615325  0.5078852173629163
  0.5467904436149120  0.5372745216181150  0.4879832217958436
  0.4658527202036536  0.5517145459310629  0.5329093577071174
  0.5744994026452493  0.4694181107660207  0.4676900009334908
 
             NaN             NaN             NaN
             NaN             NaN             NaN
             NaN             NaN             NaN
             NaN             NaN             NaN
             NaN             NaN             NaN
             NaN             NaN             NaN
             NaN             NaN             NaN
             NaN             NaN             NaN
             NaN             NaN             NaN
             NaN             NaN             NaN
             NaN             NaN             NaN
             NaN             NaN             NaN
             NaN             NaN             NaN
             NaN             NaN             NaN
             NaN             NaN             NaN
             NaN             NaN             NaN
             NaN             NaN             NaN
             NaN             NaN             NaN
             NaN             NaN             NaN
             NaN             NaN             NaN
             NaN             NaN             NaN
             NaN             NaN             NaN
