H3 C2 N1                                
   1.00000000000000     
    30.0000000000000000    0.0000000000000000    0.0000000000000000
     0.0000000000000000   30.0000000000000000    0.0000000000000000
     0.0000000000000000    0.0000000000000000   30.0000000000000000
   H    C    N 
     3     2     1
Direct
  0.4716176028207355  0.4643525990494752  0.5022371490746713
  0.4757920356511439  0.5089571664384421  0.4630480034151542
  0.4664780346942827  0.5207521582307708  0.5206744088200023
  0.4838606289606067  0.4985475641546250  0.4972597868948191
  0.5316325068454500  0.5009069638536700  0.5050671428514509
  0.5698410382451531  0.5032709710490871  0.5118989366628126
 
             NaN             NaN             NaN
             NaN             NaN             NaN
             NaN             NaN             NaN
             NaN             NaN             NaN
             NaN             NaN             NaN
             NaN             NaN             NaN
