H3 C2 N1                                
   1.00000000000000     
    30.0000000000000000    0.0000000000000000    0.0000000000000000
     0.0000000000000000   30.0000000000000000    0.0000000000000000
     0.0000000000000000    0.0000000000000000   30.0000000000000000
   H    C    N 
     3     2     1
Direct
  0.4709078144243372  0.4643500503024980  0.5020295333961600
  0.4751452296967409  0.5092862290563752  0.4630695663085648
  0.4681921135683433  0.5207726694837440  0.5211477849573242
  0.4839954838077579  0.4982380368651294  0.4969128871103941
  0.5317830133663909  0.5000640233284527  0.5044520131858838
  0.5695402163887920  0.5035156268980822  0.5130043547373029
 
             NaN             NaN             NaN
             NaN             NaN             NaN
             NaN             NaN             NaN
             NaN             NaN             NaN
             NaN             NaN             NaN
             NaN             NaN             NaN
