H3 C2 N1                                
   1.00000000000000     
    30.0000000000000000    0.0000000000000000    0.0000000000000000
     0.0000000000000000   30.0000000000000000    0.0000000000000000
     0.0000000000000000    0.0000000000000000   30.0000000000000000
   H    C    N 
     3     2     1
Direct
  0.4729990734464135  0.4684891759222126  0.5082762630599891
  0.4761399527790207  0.5123014579733990  0.4678834374078590
  0.4683960417982206  0.5256871594297875  0.5258344511538422
  0.4842417408118258  0.5027876334366573  0.5022747588183328
  0.5645853206684111  0.4870419507871100  0.4893522902367947
  0.5317639366374550  0.5022425101277033  0.5052045335481463
 
             NaN             NaN             NaN
             NaN             NaN             NaN
             NaN             NaN             NaN
             NaN             NaN             NaN
             NaN             NaN             NaN
             NaN             NaN             NaN
