H3 C2 N1                                
   1.00000000000000     
    30.0000000000000000    0.0000000000000000    0.0000000000000000
     0.0000000000000000   30.0000000000000000    0.0000000000000000
     0.0000000000000000    0.0000000000000000   30.0000000000000000
   H    C    N 
     3     2     1
Direct
  0.4728988638971489  0.4684093997944385  0.5084495537582482
  0.4759707583596737  0.5117060037270578  0.4675765773152358
  0.4680693511576485  0.5257644304473468  0.5253159878632697
  0.4841217986367211  0.5026632144724250  0.5020950113030849
  0.5649551717044073  0.4878492671645225  0.4900888842518290
  0.5316097021477943  0.5025288284297906  0.5053254163447208
 
             NaN             NaN             NaN
             NaN             NaN             NaN
             NaN             NaN             NaN
             NaN             NaN             NaN
             NaN             NaN             NaN
             NaN             NaN             NaN
